%nprocs=16
%mem=28GB
%chk=W005_1_3.chk
# PBEPBE gen 6D pseudo=read scf=maxcycles=500 denfit int=(grid=ultrafine) empiricaldispersion=GD3BJ opt freq=noraman

 W005_1

0 1
C    3.42030    -1.37970    5.83430
C    4.77390    -0.93260    5.95640
C    5.63100    -1.98420    5.50110
C    4.80670    -3.08280    5.10120
C    3.43900    -2.70810    5.30480
H    5.09200    0.04610    6.28760
H    6.70880    -1.93920    5.43010
H    5.15870    -4.01710    4.68650
H    2.57130    -3.31070    5.07690
H    2.54030    -0.79900    6.07050
Fe    4.35400    -1.39420    3.99700
C    5.26170    0.04880    2.86940
C    5.41960    -1.23520    2.25370
C    4.12160    -1.77510    1.96440
C    3.17710    -0.80080    2.42050
C    3.86140    0.31690    2.99200
H    6.06120    0.68120    3.23000
H    3.42270    1.19410    3.44740
C    1.67450    -0.89240    2.23230
P    1.52170    -0.34950    0.47010
H    1.34990    -1.92160    2.37710
C    0.91870    0.01460    3.21730
H    -0.15540    -0.15360    3.17990
H    1.21360    -0.18110    4.24680
H    1.09600    1.07200    3.01480
C    -2.31350    2.37050    0.00240
C    -2.39900    1.13910    0.68080
C    -1.24320    0.34400    0.81820
C    0.00650    0.76440    0.31250
C    0.05880    1.98490    -0.39530
C    -1.08680    2.79780    -0.54190
H    -3.19160    2.98750    -0.12130
C    -3.71790    0.64370    1.25270
H    -1.33370    -0.61270    1.31170
H    0.98060    2.30590    -0.85470
C    -1.02050    4.11290    -1.30420
C    -0.59750    -3.66980    -2.12280
C    -0.00170    -4.03920    -0.90180
C    0.67040    -3.06380    -0.13240
C    0.75890    -1.72310    -0.56760
C    0.17750    -1.38670    -1.81060
C    -0.51250    -2.34170    -2.58400
H    -1.12560    -4.41330    -2.70170
C    -0.10010    -5.48200    -0.42900
H    1.11370    -3.36740    0.80120
H    0.22410    -0.37080    -2.17670
C    -1.18630    -1.91790    -3.88010
F    -1.52100    -2.97310    -4.62340
F    -2.29050    -1.23420    -3.58440
F    -0.37320    -1.13530    -4.58720
F    0.72320    -6.23740    -1.15400
F    0.22170    -5.60150    0.85970
F    -1.34560    -5.92590    -0.59350
F    -4.65500    1.59120    1.22830
F    -4.13820    -0.39980    0.53950
F    -3.53630    0.25550    2.51510
F    -1.73250    5.04380    -0.66930
F    0.23420    4.54680    -1.42310
F    -1.53180    3.93480    -2.52090
P    4.37780    -1.54410    -1.19530
C    9.02330    -2.30610    -1.63880
C    8.10340    -3.00060    -2.45420
C    6.72160    -2.76280    -2.31120
C    6.23250    -1.82450    -1.37630
C    7.16490    -1.13020    -0.57960
C    8.55010    -1.35470    -0.70940
H    6.02640    -3.30590    -2.93380
H    6.81520    -0.40500    0.13800
Cl    5.54650    1.61140    -1.09990
Cl    3.06780    2.61410    0.69700
H    6.36110    -1.72740    2.05150
C    3.64140    -5.51730    -0.07870
C    3.42120    -5.43720    1.30450
C    3.55050    -4.20120    1.96010
C    3.87980    -3.03020    1.24250
C    4.02830    -3.09340    -0.16860
C    3.95020    -4.35350    -0.80280
H    3.57070    -6.46950    -0.58570
H    3.17500    -6.32880    1.86400
H    3.40640    -4.18550    3.02700
H    4.13730    -4.44050    -1.86200
C    3.17620    -2.01190    -5.73050
C    4.09100    -1.02070    -5.31070
C    4.42130    -0.90960    -3.94600
C    3.83790    -1.75590    -2.98140
C    2.88250    -2.70340    -3.40540
C    2.56310    -2.84660    -4.77170
H    5.14430    -0.16960    -3.63090
H    2.39590    -3.33650    -2.68140
Pd    3.63510    0.56150    -0.27040
C    8.58710    -3.99860    -3.48840
H    7.85480    -4.12190    -4.28640
H    9.52010    -3.66320    -3.94220
H    8.75800    -4.96970    -3.02460
C    9.51890    -0.56300    0.14740
H    10.41670    -0.31190    -0.41820
H    9.06860    0.37000    0.48710
H    9.81200    -1.14350    1.02150
O    10.36840    -2.53750    -1.76390
C    10.83880    -3.57370    -0.91710
H    10.67080    -3.33580    0.13380
H    10.34960    -4.52270    -1.13900
H    11.91050    -3.70650    -1.06370
C    4.72810    -0.07090    -6.30710
H    4.06510    0.11310    -7.15300
H    5.66230    -0.48780    -6.68240
H    4.94550    0.89080    -5.84180
C    1.57110    -3.90380    -5.21580
H    0.80370    -3.45750    -5.84890
H    2.07880    -4.67590    -5.79330
H    1.08190    -4.38290    -4.36910
O    2.85850    -2.15760    -7.05580
C    3.78820    -2.95120    -7.77640
H    3.44300    -3.07420    -8.80280
H    4.77400    -2.48750    -7.80890
H    3.88860    -3.94370    -7.33540

P O H C F Cl 0
6-31G(d)
****
Fe Pd 0
LANL2DZ
****

Fe Pd 0
LANL2DZ

