%nprocs=16
%mem=28GB
%chk=W005_1_4.chk
# PBEPBE gen 6D pseudo=read scf=maxcycles=500 denfit int=(grid=ultrafine) empiricaldispersion=GD3BJ opt freq=noraman

 W005_1

0 1
C    3.37360    -1.31060    5.84830
C    4.72330    -0.85440    5.97910
C    5.59110    -1.90890    5.55170
C    4.77720    -3.01820    5.16010
C    3.40530    -2.64730    5.34100
H    5.03250    0.13130    6.29790
H    6.66940    -1.85950    5.49300
H    5.13890    -3.95750    4.76520
H    2.54330    -3.25800    5.11280
H    2.48820    -0.73050    6.06460
Fe    4.32960    -1.35050    4.02270
C    5.24340    0.07860    2.88260
C    5.41560    -1.21450    2.29010
C    4.12410    -1.76600    1.99410
C    3.16940    -0.78940    2.42180
C    3.84030    0.34110    2.98370
H    6.03520    0.72120    3.24240
H    3.39110    1.22310    3.41900
C    1.67060    -0.89240    2.21340
P    1.54160    -0.35520    0.44730
H    1.35120    -1.92390    2.35440
C    0.89570    0.01120    3.18650
H    -0.17650    -0.16580    3.13660
H    1.17900    -0.18000    4.21990
H    1.06730    1.06950    2.98400
C    -2.27200    2.38710    -0.07960
C    -1.03910    2.79560    -0.62580
C    0.10060    1.98080    -0.45250
C    0.03440    0.76680    0.26500
C    -1.22350    0.35820    0.75990
C    -2.37160    1.16210    0.60870
H    -3.14510    3.01050    -0.20570
C    -0.93570    4.10750    -1.39000
H    1.02910    2.29950    -0.89990
H    -1.32570    -0.59450    1.25870
C    -3.69830    0.68320    1.17690
C    -0.55010    -3.67620    -2.16740
C    0.04310    -4.04820    -0.94540
C    0.70440    -3.07250    -0.16650
C    0.78570    -1.72910    -0.59440
C    0.20750    -1.39010    -1.83790
C    -0.47390    -2.34420    -2.61910
H    -1.06820    -4.42080    -2.75390
C    -0.04250    -5.49510    -0.48300
H    1.14760    -3.37800    0.76690
H    0.25030    -0.37280    -2.20010
C    -1.14380    -1.91080    -3.91390
F    -2.20450    -1.16130    -3.61860
F    -0.29880    -1.18580    -4.64500
F    -1.54630    -2.95740    -4.63480
F    0.80650    -6.23260    -1.19650
F    0.25630    -5.61660    0.81100
F    -1.27750    -5.95750    -0.67400
F    -2.10160    4.41660    -1.95790
F    -0.59750    5.07910    -0.54460
F    -0.01130    4.02300    -2.34690
F    -4.61820    1.64770    1.16440
F    -4.13770    -0.34410    0.45190
F    -3.52340    0.27730    2.43460
P    4.41040    -1.58800    -1.16930
C    9.05650    -2.35530    -1.60130
C    8.13880    -3.04540    -2.42310
C    6.75670    -2.80710    -2.28360
C    6.26500    -1.87160    -1.34720
C    7.19540    -1.18160    -0.54420
C    8.58080    -1.40750    -0.66960
H    6.06430    -3.34770    -2.91160
H    6.84380    -0.45760    0.17350
Cl    5.59740    1.56120    -1.09840
Cl    3.10440    2.60370    0.65270
H    6.36200    -1.70520    2.10770
C    3.69340    -5.54600    0.01200
C    3.45100    -5.44230    1.38990
C    3.56350    -4.19390    2.02480
C    3.89650    -3.03400    1.29100
C    4.06340    -3.12080    -0.11650
C    4.00550    -4.39320    -0.72810
H    3.63720    -6.50740    -0.47900
H    3.20230    -6.32530    1.96170
H    3.40460    -4.16030    3.08910
H    4.20910    -4.49780    -1.78280
C    3.17380    -2.16380    -5.68480
C    4.11250    -1.18090    -5.29990
C    4.44150    -1.02350    -3.93910
C    3.85920    -1.83930    -2.94790
C    2.91110    -2.80630    -3.34300
C    2.58750    -2.99090    -4.70300
H    5.17480    -0.28340    -3.64900
H    2.44050    -3.43080    -2.60160
Pd    3.66970    0.53390    -0.27880
C    8.62370    -4.03820    -3.46190
H    7.90160    -4.14010    -4.27220
H    9.56830    -3.71210    -3.89820
H    8.77220    -5.01750    -3.00800
C    9.54830    -0.62160    0.19380
H    9.09280    0.30150    0.55290
H    9.85330    -1.21450    1.05530
H    10.43950    -0.35350    -0.37440
O    10.40220    -2.58610    -1.72080
C    10.86500    -3.63950    -0.89140
H    10.68410    -3.42420    0.16230
H    10.38070    -4.58460    -1.13900
H    11.93860    -3.76690    -1.02830
C    4.79510    -0.30790    -6.33580
H    4.19210    0.57600    -6.54190
H    4.94180    -0.85210    -7.26920
H    5.77440    0.01920    -5.98590
C    1.63450    -4.09630    -5.11450
H    0.74280    -3.67940    -5.58010
H    2.11770    -4.75020    -5.84090
H    1.32910    -4.70560    -4.26440
O    2.85720    -2.34620    -7.00570
C    1.82330    -1.48810    -7.46330
H    1.67400    -1.63620    -8.53260
H    0.88010    -1.70490    -6.96210
H    2.06550    -0.43740    -7.30180

P O H C F Cl 0
6-31G(d)
****
Fe Pd 0
LANL2DZ
****

Fe Pd 0
LANL2DZ

