%nprocs=16
%mem=28GB
%chk=W005_1_5.chk
# PBEPBE gen 6D pseudo=read scf=maxcycles=500 denfit int=(grid=ultrafine) empiricaldispersion=GD3BJ opt freq=noraman

 W005_1

0 1
C    2.23030    -1.42820    5.62490
C    3.34680    -0.64040    6.05020
C    4.51800    -1.45920    5.98690
C    4.12400    -2.75480    5.53110
C    2.71030    -2.73650    5.29980
H    3.31850    0.40540    6.32290
H    5.52770    -1.14160    6.20660
H    4.79320    -3.58720    5.36690
H    2.11580    -3.55740    4.92430
H    1.21130    -1.08030    5.53120
Fe    3.64150    -1.31090    4.12850
C    4.49300    0.24470    3.11340
C    5.10650    -0.99330    2.72710
C    4.09820    -1.85220    2.17210
C    2.87880    -1.11610    2.22670
C    3.09330    0.16270    2.82510
H    4.99190    1.07430    3.59550
H    2.35940    0.91880    3.05310
C    1.57930    -1.59300    1.61190
P    1.47840    -0.52560    0.11140
H    1.68830    -2.63650    1.31700
C    0.37570    -1.47120    2.55500
H    -0.54800    -1.72690    2.03460
H    0.46330    -2.15830    3.39590
H    0.25910    -0.46670    2.96060
C    -2.15150    2.43130    0.95360
C    -2.32200    1.33870    0.08320
C    -1.23920    0.46670    -0.15790
C    0.03150    0.67190    0.43310
C    0.16440    1.77510    1.30510
C    -0.90830    2.64980    1.57590
H    -2.97860    3.09760    1.15070
C    -3.67130    1.07630    -0.56900
H    -1.42370    -0.37220    -0.80970
H    1.10370    1.97740    1.78820
C    -0.71460    3.81680    2.53270
C    -0.48320    -2.86770    -3.46060
C    -0.40910    -3.49280    -2.19890
C    0.19870    -2.81600    -1.11990
C    0.75180    -1.52890    -1.29180
C    0.68610    -0.92990    -2.56810
C    0.06700    -1.58540    -3.65330
H    -0.96350    -3.36810    -4.28840
C    -0.99950    -4.87610    -1.97580
H    0.20840    -3.30300    -0.15750
H    1.08450    0.06390    -2.71580
C    -0.05400    -0.89360    -5.00320
F    -1.21650    -0.24500    -5.04370
F    0.93030    -0.01200    -5.18210
F    -0.02420    -1.77800    -5.99910
F    -2.13880    -4.75850    -1.29630
F    -1.24410    -5.49990    -3.12800
F    -0.15050    -5.61820    -1.26410
F    -4.37030    2.20440    -0.69270
F    -3.51040    0.54180    -1.77970
F    -4.35750    0.22350    0.18980
F    -1.87770    4.19890    3.06040
F    0.10170    3.46510    3.52740
F    -0.18010    4.84350    1.87520
P    4.55900    -1.83110    -1.03230
C    9.23700    -2.04910    -1.66420
C    8.37710    -2.55190    -2.66480
C    6.97980    -2.48240    -2.49080
C    6.41790    -1.91940    -1.32330
C    7.29060    -1.45640    -0.31780
C    8.68920    -1.51620    -0.47710
H    6.34170    -2.87930    -3.26470
H    6.87380    -1.03790    0.58510
Cl    5.73740    1.29890    -0.95610
Cl    2.97260    2.51620    0.05360
H    6.15150    -1.24410    2.84490
C    4.89960    -5.71070    0.47120
C    4.57540    -5.59380    1.82990
C    4.29230    -4.32770    2.36890
C    4.30950    -3.16770    1.56260
C    4.55610    -3.29150    0.17230
C    4.89830    -4.56440    -0.34020
H    5.15250    -6.67380    0.05070
H    4.56930    -6.47030    2.46230
H    4.07360    -4.27990    3.41970
H    5.17020    -4.66690    -1.38090
C    2.90120    -3.24040    -5.21880
C    3.55810    -1.99820    -5.07370
C    4.03310    -1.60190    -3.80760
C    3.85010    -2.41790    -2.67230
C    3.13520    -3.62630    -2.82010
C    2.67850    -4.04880    -4.08460
H    4.56270    -0.66490    -3.70520
H    2.93580    -4.24670    -1.96060
Pd    3.68120    0.34110    -0.40220
C    8.94450    -3.17020    -3.92800
H    8.22250    -3.83720    -4.39910
H    9.20920    -2.39080    -4.64210
H    9.83940    -3.75130    -3.70390
C    9.58970    -1.00330    0.62970
H    9.08220    -1.03510    1.59360
H    10.49280    -1.60940    0.70710
H    9.88080    0.02740    0.42880
O    10.59580    -2.09920    -1.83590
C    11.12370    -0.93200    -2.44560
H    10.69850    -0.77410    -3.43740
H    10.93030    -0.04430    -1.84240
H    12.20310    -1.03380    -2.55580
C    3.75870    -1.08020    -6.26450
H    2.94120    -1.18410    -6.97890
H    4.69430    -1.31450    -6.77130
H    3.78990    -0.03670    -5.95050
C    1.95240    -5.37310    -4.22420
H    1.03810    -5.24740    -4.80500
H    2.58510    -6.09550    -4.73920
H    1.68390    -5.78960    -3.25370
O    2.44490    -3.65390    -6.44240
C    3.43360    -4.30560    -7.22370
H    2.99210    -4.64410    -8.16080
H    4.26020    -3.63750    -7.46570
H    3.83510    -5.17850    -6.70750

P O H C F Cl 0
6-31G(d)
****
Fe Pd 0
LANL2DZ
****

Fe Pd 0
LANL2DZ

