%nprocs=14
%mem=128GB
%chk=XantPhos_5.chk
# PBEPBE gen 6D pseudo=read scf=maxcycles=500 denfit int=(grid=ultrafine) empiricaldispersion=GD3BJ opt freq=noraman

 XantPhos

0 1
P    -1.52180    1.41640    -3.61330
C    -2.14540    1.65610    -1.85140
C    -3.50290    1.57450    -1.47990
C    -3.89280    1.83390    -0.15000
C    -2.93270    2.17830    0.82500
C    -1.56410    2.26440    0.47660
C    -1.20840    2.01470    -0.86880
O    0.09150    2.11980    -1.24550
C    -0.43530    2.61660    1.47740
C    -0.81230    2.17490    2.91260
C    -0.21900    4.13910    1.47080
C    -2.01190    -0.26740    -4.26810
C    -2.91590    -1.11040    -3.58710
C    -3.29850    -2.34800    -4.14030
C    -2.77280    -2.75960    -5.37910
C    -1.86180    -1.93230    -6.06140
C    -1.48500    -0.69400    -5.50640
C    -2.77900    2.54760    -4.44240
C    -3.56150    2.12820    -5.54250
C    -4.66470    4.30190    -5.63480
C    -4.49780    2.99780    -6.13520
C    -3.89350    4.73310    -4.54030
C    -2.95950    3.85980    -3.95070
H    -4.24950    1.33530    -2.22400
H    -3.27120    2.37510    1.82970
H    -4.93720    1.77670    0.12140
H    -0.97830    1.09820    2.96280
H    -1.71260    2.67040    3.27250
H    0.05170    4.49450    0.47580
H    -1.12190    4.67020    1.77330
H    -3.45720    1.13280    -5.94590
H    -5.38080    4.97040    -6.09040
H    -4.01510    5.73430    -4.15330
H    -2.37110    4.20360    -3.11220
H    -3.32020    -0.81880    -2.63090
H    -3.98960    -2.98470    -3.60770
H    -3.06370    -3.71040    -5.80160
H    -1.45550    -2.24540    -7.01220
H    -0.79830    -0.05860    -6.04630
P    1.74690    0.23940    -2.62460
C    2.01080    0.79360    -0.85100
C    3.03870    0.39080    0.02590
C    2.99350    0.77160    1.38370
C    1.89980    1.50900    1.88600
C    0.86490    1.92320    1.01500
C    1.00260    1.63420    -0.35810
C    0.67730    -1.29250    -2.39690
C    -0.13700    -1.47350    -1.25540
C    -0.88690    -2.65250    -1.08090
C    -0.83210    -3.67170    -2.04850
C    -0.03390    -3.50260    -3.19420
C    0.70950    -2.31930    -3.36660
C    3.30780    -0.61090    -3.25160
C    3.88620    -1.66890    -2.51490
C    5.61760    -1.96110    -4.20430
C    5.03620    -2.33550    -2.97970
C    5.03510    -0.93190    -4.96580
C    3.88350    -0.27120    -4.49540
H    3.85810    -0.21640    -0.32300
H    1.87160    1.73580    2.93990
H    3.78220    0.45870    2.05290
H    -0.04050    2.42820    3.63750
H    0.58230    4.42970    2.15060
H    3.43010    -1.98890    -1.58920
H    3.44150    0.49440    -5.11230
H    -0.19240    -0.71530    -0.49040
H    -1.50230    -2.77400    -0.20150
H    -1.40710    -4.57660    -1.91750
H    0.00430    -4.27730    -3.94590
H    1.32090    -2.20930    -4.25040
H    5.46800    -0.65130    -5.91520
H    6.49960    -2.47060    -4.56490
H    5.46600    -3.13960    -2.39990
H    -5.08780    2.66240    -6.97570
Pd    0.79940    2.04200    -3.93730
Cl    2.95800    2.89650    -4.19820
Cl    0.09920    3.80910    -5.29150

H Cl P C O 0
6-31G(d)
****
Pd 0
LANL2DZ
****

Pd 0
LANL2DZ

