%nprocs=14
%mem=128GB
%chk=XantPhos_2.chk
# PBEPBE gen 6D pseudo=read scf=maxcycles=500 denfit int=(grid=ultrafine) empiricaldispersion=GD3BJ opt freq=noraman

 XantPhos

0 1
P    -1.65480    1.65010    -3.50400
C    -2.17030    2.29210    -1.81710
C    -3.50390    2.53490    -1.42770
C    -3.80050    2.91080    -0.10220
C    -2.77770    2.97870    0.86580
C    -1.44300    2.67590    0.50770
C    -1.16090    2.39120    -0.84770
O    0.11510    2.08500    -1.21670
C    -0.28250    2.55220    1.51800
C    -0.80510    2.26680    2.94710
C    0.50440    3.87420    1.54550
C    -2.32960    -0.09690    -3.26520
C    -3.12100    -0.74540    -4.24130
C    -3.64500    -2.03320    -4.01580
C    -3.39360    -2.69410    -2.80080
C    -2.61840    -2.06130    -1.81390
C    -2.09240    -0.77660    -2.04810
C    -2.75620    2.49320    -4.78340
C    -2.75680    2.02040    -6.11490
C    -4.31640    3.76800    -6.78700
C    -3.53830    2.64150    -7.10830
C    -4.29440    4.27830    -5.47660
C    -3.51090    3.65140    -4.48820
H    -4.30610    2.41210    -2.14090
H    -3.04860    3.22370    1.88040
H    -4.82440    3.10580    0.18290
H    -1.37180    1.33560    2.98340
H    -1.44740    3.06620    3.31400
H    0.89740    4.12390    0.55920
H    -0.12630    4.70440    1.86440
H    -2.14410    1.17290    -6.38410
H    -4.91200    4.25160    -7.54770
H    -4.86740    5.16070    -5.23130
H    -3.47880    4.09150    -3.50420
H    -3.35660    -0.26470    -5.17450
H    -4.24620    -2.51160    -4.77510
H    -3.79350    -3.68220    -2.62610
H    -2.41860    -2.56240    -0.87820
H    -1.49990    -0.31530    -1.27290
P    1.54600    0.02060    -2.80320
C    1.50160    0.17380    -0.93090
C    2.20350    -0.68480    -0.05950
C    2.13790    -0.49400    1.33520
C    1.35940    0.54880    1.87780
C    0.64630    1.42070    1.02220
C    0.76350    1.23190    -0.37470
C    0.80580    -1.61540    -3.33370
C    0.73300    -2.72760    -2.46710
C    0.20200    -3.95300    -2.91450
C    -0.26300    -4.07860    -4.23660
C    -0.19390    -2.97740    -5.10960
C    0.33980    -1.75470    -4.65880
C    3.38280    -0.32460    -3.03590
C    4.33750    0.43890    -2.32730
C    6.16060    -0.80930    -3.35620
C    5.71640    0.20030    -2.48320
C    5.22250    -1.57490    -4.07240
C    3.84420    -1.33180    -3.91370
H    2.80920    -1.48360    -0.46340
H    1.32170    0.65510    2.95030
H    2.68440    -1.15520    1.99240
H    0.00440    2.19640    3.67230
H    1.35190    3.81740    2.22900
H    4.00980    1.22230    -1.65900
H    3.14550    -1.93160    -4.47710
H    1.08110    -2.65150    -1.44990
H    0.14780    -4.79550    -2.24070
H    -0.67520    -5.01660    -4.57910
H    -0.55190    -3.07030    -6.12450
H    0.39540    -0.91960    -5.34090
H    5.55920    -2.34870    -4.74690
H    7.21810    -0.99260    -3.47970
H    6.43240    0.79600    -1.93570
H    -3.53200    2.26050    -8.11920
Pd    0.70800    1.97200    -3.96580
Cl    2.90620    2.49370    -4.55780
Cl    0.12410    3.93120    -5.09850

H Cl P C O 0
6-31G(d)
****
Pd 0
LANL2DZ
****

Pd 0
LANL2DZ

