%nprocs=14
%mem=128GB
%chk=XantPhos_1.chk
# PBEPBE gen 6D pseudo=read scf=maxcycles=500 denfit int=(grid=ultrafine) empiricaldispersion=GD3BJ opt freq=noraman

 XantPhos

0 1
P    -1.59510    1.82190    -3.42300
C    -1.96890    2.71420    -1.81460
C    -3.16030    3.38210    -1.46520
C    -3.34100    3.85420    -0.14800
C    -2.36090    3.61730    0.83980
C    -1.15950    2.95230    0.50030
C    -0.95590    2.60590    -0.85120
O    0.23570    2.07510    -1.24070
C    -0.08220    2.52730    1.52210
C    -0.71940    2.23840    2.90320
C    0.93640    3.66880    1.67810
C    -2.22440    0.08590    -3.05810
C    -2.31690    -0.41450    -1.73900
C    -2.84180    -1.69640    -1.48640
C    -3.28460    -2.49890    -2.55320
C    -3.19050    -2.01890    -3.87200
C    -2.65950    -0.73850    -4.11950
C    -2.87520    2.30770    -4.71820
C    -4.25440    2.19350    -4.43290
C    -4.82930    2.96250    -6.67240
C    -5.22650    2.52500    -5.39620
C    -3.46030    3.05020    -6.98350
C    -2.49370    2.71480    -6.01540
H    -3.94550    3.52930    -2.18890
H    -2.55640    3.94450    1.84870
H    -4.25670    4.36360    0.11620
H    -1.44890    1.43020    2.83940
H    -1.22300    3.11130    3.31510
H    1.40970    3.90780    0.72490
H    0.46050    4.57910    2.04360
H    -4.57310    1.82670    -3.46790
H    -5.57200    3.21700    -7.41470
H    -3.14960    3.36990    -7.96780
H    -1.45240    2.76400    -6.28960
H    -1.99560    0.18030    -0.89860
H    -2.90620    -2.06160    -0.47180
H    -3.68680    -3.48300    -2.36230
H    -3.51930    -2.63440    -4.69630
H    -2.59970    -0.38450    -5.13840
P    1.46600    -0.02520    -2.90780
C    1.35710    0.00570    -1.02690
C    1.92010    -0.97970    -0.19050
C    1.85130    -0.84610    1.21150
C    1.22050    0.27280    1.79550
C    0.64630    1.27370    0.97670
C    0.74690    1.11810    -0.42490
C    0.71810    -1.59950    -3.59070
C    0.34750    -2.68180    -2.76430
C    -0.16360    -3.86930    -3.32340
C    -0.31770    -3.98310    -4.71760
C    0.03780    -2.90600    -5.55040
C    0.55200    -1.72200    -4.98730
C    3.31220    -0.38390    -3.01100
C    3.83270    -1.44370    -3.78840
C    6.10580    -0.87500    -3.10990
C    5.21890    -1.68860    -3.83830
C    5.60240    0.18290    -2.33140
C    4.21580    0.42320    -2.28410
H    2.42700    -1.82860    -0.62720
H    1.19370    0.34190    2.87120
H    2.29380    -1.60340    1.84270
H    0.02370    1.96160    3.64940
H    1.72820    3.40200    2.37850
H    3.17650    -2.08580    -4.35530
H    3.84150    1.24060    -1.68460
H    0.44620    -2.60970    -1.69290
H    -0.44540    -4.68940    -2.67950
H    -0.71300    -4.89260    -5.14600
H    -0.08000    -2.98950    -6.62110
H    0.83790    -0.90740    -5.63650
H    6.27860    0.81290    -1.77210
H    7.16940    -1.06060    -3.14970
H    5.60110    -2.50210    -4.43770
H    -6.27640    2.43480    -5.15750
Pd    0.75440    2.03320    -3.97590
Cl    2.95430    2.39650    -4.66540
Cl    0.28180    4.13120    -4.88860

H Cl P C O 0
6-31G(d)
****
Pd 0
LANL2DZ
****

Pd 0
LANL2DZ

