%nprocs=14
%mem=128GB
%chk=XantPhos_4.chk
# PBEPBE gen 6D pseudo=read scf=maxcycles=500 denfit int=(grid=ultrafine) empiricaldispersion=GD3BJ opt freq=noraman

 XantPhos

0 1
P    -1.55630    1.50350    -3.57160
C    -2.13570    1.91600    -1.83230
C    -3.49280    2.04360    -1.47010
C    -3.84950    2.37610    -0.14800
C    -2.85550    2.57200    0.83250
C    -1.48840    2.44740    0.49140
C    -1.15770    2.15460    -0.85230
O    0.15460    2.06850    -1.20940
C    -0.32790    2.58090    1.50330
C    -0.79960    2.27330    2.94550
C    0.20900    4.02240    1.46680
C    -2.15960    -0.19880    -4.06510
C    -3.27710    -0.80980    -3.45590
C    -3.72250    -2.07700    -3.87980
C    -3.05290    -2.74770    -4.91990
C    -1.93910    -2.14770    -5.53550
C    -1.49840    -0.87970    -5.11000
C    -2.73370    2.59920    -4.55170
C    -2.96410    3.93060    -4.13840
C    -4.49860    4.28610    -5.99840
C    -3.84000    4.76990    -4.85350
C    -4.27600    2.96420    -6.42520
C    -3.39820    2.12880    -5.70710
H    -4.26390    1.90260    -2.21410
H    -3.16680    2.81100    1.83690
H    -4.89260    2.47630    0.11620
H    -1.19220    1.25900    3.02640
H    -1.57530    2.96180    3.27790
H    0.55580    4.29260    0.46870
H    -0.56160    4.74010    1.74930
H    -2.45890    4.31690    -3.26490
H    -5.16910    4.92870    -6.55040
H    -4.77670    2.58950    -7.30610
H    -3.24280    1.11960    -6.05750
H    -3.80230    -0.31430    -2.65570
H    -4.57630    -2.53590    -3.40310
H    -3.39070    -3.72180    -5.24220
H    -1.42180    -2.66110    -6.33270
H    -0.64770    -0.42610    -5.59620
P    1.68230    0.05240    -2.67810
C    1.79580    0.39650    -0.83630
C    2.56060    -0.36310    0.07310
C    2.49480    -0.09520    1.45510
C    1.61150    0.88600    1.95010
C    0.79010    1.61410    1.05770
C    0.94190    1.38760    -0.32920
C    0.66580    -1.53090    -2.52070
C    0.99470    -2.71680    -3.21710
C    0.24110    -3.89440    -3.04620
C    -0.85360    -3.90940    -2.16430
C    -1.18920    -2.74360    -1.45460
C    -0.43570    -1.56810    -1.63480
C    3.40400    -0.45670    -3.25880
C    3.56360    -1.00880    -4.54950
C    5.97580    -1.16140    -4.23990
C    4.83490    -1.37110    -5.03490
C    5.84030    -0.57320    -2.96960
C    4.56540    -0.21410    -2.49050
H    3.18430    -1.16880    -0.28630
H    1.55370    1.03100    3.01710
H    3.09350    -0.67560    2.14240
H    0.00630    2.38110    3.67020
H    1.04970    4.14990    2.14920
H    2.70070    -1.15150    -5.18300
H    4.49730    0.27590    -1.53220
H    1.83890    -2.75420    -3.88300
H    0.50830    -4.78940    -3.58870
H    -1.43360    -4.81100    -2.03240
H    -2.02980    -2.74550    -0.77650
H    -0.71680    -0.68770    -1.07760
H    6.71630    -0.38300    -2.36650
H    6.95380    -1.43170    -4.61110
H    4.93620    -1.79960    -6.02150
H    -4.00190    5.78620    -4.52490
Pd    0.79810    1.92620    -3.94570
Cl    3.00710    2.54790    -4.38910
Cl    0.20290    3.78290    -5.23150

H Cl P C O 0
6-31G(d)
****
Pd 0
LANL2DZ
****

Pd 0
LANL2DZ

