%nprocs=28
%mem=128GB
%chk=XantPhos_3_SPE_NoPd.chk
# PBE1PBE/def2TZVP int=(grid=ultrafine) empiricaldispersion=GD3BJ nmr=giao 

XantPhos_3 title 

0 1
P    -1.6139528776    1.791583568    -3.5125859433
C    -1.9754467492    2.5996872747    -1.8906202983
C    -3.2397139435    3.110705866    -1.5343520048
C    -3.5079026344    3.4360874732    -0.1977784217
C    -2.54513357    3.2244697988    0.8045401652
C    -1.2679645176    2.7416901409    0.4802425628
C    -1.0154165964    2.4934143572    -0.878226027
O    0.2228811771    2.0252362747    -1.2647567123
C    -0.1287344101    2.4299480469    1.4637930528
C    -0.6417552575    2.2664626587    2.9021363169
C    0.901011913    3.594820803    1.4159459389
C    -2.2779968797    0.0910465175    -3.2793904898
C    -2.126627127    -0.8019457795    -4.3627463059
C    -2.6744969947    -2.0869416622    -4.2946992745
C    -3.341793265    -2.5057482447    -3.1334650789
C    -3.4619208214    -1.6347277181    -2.0425283961
C    -2.9408617806    -0.3339917405    -2.114319293
C    -2.8850790199    2.6124134321    -4.5594325838
C    -2.7978927184    4.0099532925    -4.7351459318
C    -4.8492819343    3.9782252847    -6.03663141
C    -3.7810941341    4.6861853644    -5.4641261389
C    -4.9349053823    2.5908597869    -5.8689498664
C    -3.9588550351    1.9066159588    -5.1287560626
H    -4.0149436732    3.2171413803    -2.2982243966
H    -2.8018947905    3.4340097533    1.8471607666
H    -4.4930249264    3.826909752    0.0746765839
H    -1.3760830642    1.4475018968    2.9840417312
H    -1.115447529    3.1985100407    3.2517630614
H    1.2881475242    3.7435433501    0.3953619686
H    0.4251835713    4.5338036199    1.7469247434
H    -1.9567957997    4.5621286135    -4.3079797101
H    -5.6124585953    4.5097982873    -6.6143246611
H    -5.7664429862    2.0319066717    -6.3104334127
H    -4.0415342653    0.825002968    -4.9928943021
H    -1.574492351    -0.4809018581    -5.2535725557
H    -2.5502948141    -2.7724514015    -5.138074431
H    -3.755927982    -3.5175743872    -3.0753488612
H    -3.972631678    -1.9623427836    -1.130860113
H    -3.0582897642    0.3499334396    -1.2685599288
P    1.4793262677    -0.1010877003    -2.9331858321
C    1.3222564858    -0.0575265734    -1.0821087947
C    1.8767528498    -1.0550814761    -0.2519876463
C    1.7432340519    -0.9702824204    1.138291316
C    1.0784392638    0.1165056501    1.7341818988
C    0.5600999777    1.1534090354    0.9472603542
C    0.7162049477    1.029842045    -0.4460968409
C    0.9135142903    -1.7874818292    -3.3938186224
C    0.2349284194    -2.6434113248    -2.5079411263
C    -0.1709710689    -3.915493888    -2.9348739948
C    0.0902002385    -4.3387093674    -4.2445857441
C    0.7460681061    -3.4766745137    -5.1379454739
C    1.1528345304    -2.2034650905    -4.7225625138
C    3.3196791604    -0.1966859471    -2.9831476901
C    4.0468744982    1.0014676527    -2.8488343537
C    6.1193323481    -0.2638286152    -2.7855703886
C    5.4404066472    0.9646391149    -2.7466453769
C    5.3973850481    -1.4552397299    -2.9269678553
C    3.9976745244    -1.4265440778    -3.0220969535
H    2.4078117505    -1.8995221613    -0.7011845047
H    0.981758132    0.154160091    2.8232088343
H    2.164742674    -1.7579079385    1.7702832336
H    0.1942850448    2.0578893112    3.5896782178
H    1.7524169019    3.3743997561    2.0822398619
H    3.5186897142    1.9604770967    -2.8588493057
H    3.4384565913    -2.3593073505    -3.1437087958
H    0.008319063    -2.3165795242    -1.489776737
H    -0.7025955176    -4.572609501    -2.2388187301
H    -0.2244566985    -5.3348778917    -4.5731073885
H    0.9429416112    -3.7952600406    -6.1668672844
H    1.6531443873    -1.5191612455    -5.4183916084
H    5.922014491    -2.4155308659    -2.9705173064
H    7.2115714484    -0.2890711126    -2.7150402126
H    6.0010522155    1.900430332    -2.6545769797
H    -3.7034326889    5.7697480826    -5.5984187285

--Link1--
%nprocs=28
%mem=128GB
%chk=XantPhos_3_SPE_NoPd.chk
# PBE1PBE/def2TZVP int=(grid=ultrafine) empiricaldispersion=GD3BJ pop=nbo guess=read geom=check

XantPhos_3 title 

0 1

