%nprocs=28
%mem=128GB
%chk=SS_Et_DuPhos_4_SPE.chk
# PBE1PBE gen pseudo=read int=(grid=ultrafine) empiricaldispersion=GD3BJ nmr=giao 

SS_Et_DuPhos_4 title 

0 1
Cl    -1.3711796211    -3.6332734189    1.3066168095
P    -1.607776249    -0.6390421867    0.0477662894
P    1.4510946356    -0.0741372524    0.3297594972
C    -1.0116478362    1.0605455527    -0.3611328411
C    0.3776921824    1.3086740106    -0.2591583924
C    -3.0693591679    -0.5940473427    1.237424561
H    -2.8473685447    -1.4723203598    1.8737801111
C    -2.6381050268    -1.1524362678    -1.4406283284
H    -2.9940930859    -0.1801598687    -1.8412387066
C    2.4463417651    0.6660294321    1.7447113582
H    2.4848636938    1.7439082099    1.4815924574
C    2.9438724636    -0.3208097098    -0.7946555403
H    3.0287704535    -1.4246000221    -0.7893654713
C    -4.3013240873    -0.9267603228    0.3649701612
H    -5.0845643316    -1.3970794535    0.9851395
H    -4.7292133053    0.0085070077    -0.0492730668
C    -3.8476285551    -1.8440118238    -0.7824129186
H    -4.6477221708    -2.0039391584    -1.5274789583
H    -3.5475228981    -2.8274187021    -0.379191291
C    3.8526851799    0.0865605518    1.4979537394
H    4.5965003706    0.6100376291    2.1252988839
H    3.8709680981    -0.9860695721    1.7603797943
C    4.1373261418    0.2608031885    -0.0028132729
H    5.0713869075    -0.2430761183    -0.3076282629
H    4.2536754954    1.3376601995    -0.2399884536
C    -3.2031799245    0.6529942103    2.1173650776
H    -3.3704540882    1.5482722554    1.4886212093
H    -4.1227854761    0.5294594947    2.7214739268
C    -1.9427611887    -1.8910388619    -2.5964834964
H    -1.2200373601    -1.2004513685    -3.0689611224
H    -2.7243704521    -2.070533722    -3.3611390526
C    1.8805642154    0.5682186978    3.1713775352
H    0.9569651861    1.173744172    3.2241426357
H    2.6101935652    1.0829873672    3.8274891652
C    2.8079946964    0.173690046    -2.2383757184
H    2.6667964201    1.2712394222    -2.254768811
H    3.7760315389    -0.015967265    -2.7411850029
C    -2.0051602    0.8825118722    3.043944736
H    -2.1853967321    1.7297584603    3.7269851211
H    -1.0955839167    1.1103729419    2.462000408
H    -1.7931713137    -0.0136316392    3.6520595329
C    -1.2434073043    -3.2111563514    -2.2610735498
H    -1.9113276913    -3.9195366914    -1.7455820732
H    -0.8793674358    -3.6885449748    -3.1871397578
H    -0.3773405486    -3.0542830603    -1.5936897578
C    1.6032807119    -0.8349418921    3.7177879795
H    2.4831360218    -1.4938988954    3.645094572
H    0.7903651482    -1.33458156    3.1613584495
H    1.3034317857    -0.772022957    4.7780498934
C    1.6800797985    -0.509223035    -3.018061914
H    1.7768734337    -1.6078718026    -2.9804089472
H    0.695000165    -0.2490116192    -2.5940122992
H    1.6808233267    -0.1976341569    -4.0762526939
C    -1.8727944407    2.0907825428    -0.7842143086
H    -2.9491124131    1.9058642341    -0.8685247961
C    -1.360818183    3.3555371782    -1.1020999175
H    -2.038030629    4.1513851535    -1.4277026172
C    0.0165940772    3.6008782114    -1.0030339355
H    0.4177804968    4.5877120198    -1.2544620594
C    0.8820359827    2.5827988542    -0.5819648362
H    1.9558731179    2.7837223627    -0.5028000526
Cl    2.1576589226    -3.1722909883    1.0432770383
Pd    0.1583481799    -1.8853528576    0.6836817809

Cl P H C 0
def2TZVP
****
Pd 0
SDD
****

Pd 0
SDD

--Link1--
%nprocs=28
%mem=128GB
%chk=SS_Et_DuPhos_4_SPE.chk
# PBE1PBE gen pseudo=read int=(grid=ultrafine) empiricaldispersion=GD3BJ pop=nbo guess=read geom=check

SS_Et_DuPhos_4 title 

0 1

Cl P H C 0
def2TZVP
****
Pd 0
SDD
****

Pd 0
SDD

