%nprocs=28
%mem=128GB
%chk=SS_Et_DuPhos_2_SPE.chk
# PBE1PBE gen pseudo=read int=(grid=ultrafine) empiricaldispersion=GD3BJ nmr=giao 

SS_Et_DuPhos_2 title 

0 1
Cl    -1.2509261881    -3.7866986323    1.2160877971
P    -1.5365211016    -0.7591983605    0.0557259867
P    1.5376816173    -0.1809667343    0.3632831401
C    -0.9313443701    0.9456180788    -0.3337722666
C    0.4387206784    1.2249514623    -0.1114279107
C    -2.9361285621    -0.6951197988    1.3302266656
H    -2.563702541    -1.3000744846    2.1753234763
C    -2.6200558702    -1.2382510818    -1.4204697324
H    -2.3794964631    -0.5245990837    -2.2308286687
C    2.579437794    0.3929068484    1.8272657496
H    2.3940849662    1.4846398864    1.8954865278
C    2.9683250372    -0.2382112482    -0.8614405702
H    3.1879310421    -1.323116799    -0.8934414264
C    -4.0698719821    -1.4502355328    0.5964223223
H    -3.8818859385    -2.5349198801    0.6750836663
H    -5.0428796722    -1.2386226123    1.0750257201
C    -4.0550589047    -1.0256369163    -0.8811827655
H    -4.348809105    0.0378004614    -0.9685233861
H    -4.7763751484    -1.608452184    -1.4814860168
C    4.0291827972    0.1425489701    1.3590799023
H    4.7351993462    0.7363277699    1.9664716281
H    4.2636628026    -0.9262791362    1.5127945885
C    4.1248289566    0.479661216    -0.1341794054
H    5.0939443621    0.1696515266    -0.5645460715
H    4.0403984517    1.5741802035    -0.2881981311
C    -3.362463886    0.6951960225    1.8363790949
H    -3.6367676747    1.3536090307    0.9920976261
H    -4.2977220992    0.5415763375    2.4088618244
C    -2.3885364752    -2.6749465772    -1.9299327438
H    -3.1966960356    -2.8846123933    -2.6576445013
H    -2.5049735435    -3.3872936265    -1.0949480087
C    2.2440090112    -0.2689492705    3.1704416702
H    2.985804119    0.0943054648    3.9080725446
H    2.3949551696    -1.3582672438    3.0667902427
C    2.687979347    0.2755976393    -2.2781129197
H    2.4407475211    1.3535202522    -2.242160862
H    3.6361993416    0.1992571952    -2.8446163329
C    -2.3405193524    1.397552607    2.7340678031
H    -2.7484395784    2.3471561447    3.1202744746
H    -1.4098063267    1.6307356171    2.1914484076
H    -2.0750291048    0.7649727846    3.5980666819
C    -1.0291724538    -2.9009135457    -2.5911838012
H    -0.2104030406    -2.7681979158    -1.8594400762
H    -0.9546488819    -3.9305737454    -2.9786862436
H    -0.8618017032    -2.2029585461    -3.4315864143
C    0.827159271    0.0125888253    3.6706985084
H    0.0846507212    -0.4498757219    2.9942534961
H    0.6164211155    1.0960798912    3.7269851044
H    0.6696262428    -0.4192506571    4.6732634571
C    1.5849211156    -0.4871442776    -3.0151377793
H    1.7858493607    -1.5717449351    -3.0246408209
H    0.6053579726    -0.3386115978    -2.5297180794
H    1.4958736975    -0.1440971132    -4.0599542715
C    -1.7715869593    1.9591492453    -0.8337578292
H    -2.8231534053    1.7438429813    -1.0484062513
C    -1.2714914874    3.2474161869    -1.062838569
H    -1.9350396154    4.0282335453    -1.4475645406
C    0.0744866713    3.5362796905    -0.7957720142
H    0.464391254    4.5448858844    -0.9651342607
C    0.927605288    2.5268434768    -0.3310766894
H    1.9835599839    2.7525848275    -0.1479358594
Cl    2.2950062348    -3.1971439245    1.0652071543
Pd    0.2527061805    -2.0068064972    0.635359959

Cl P H C 0
def2TZVP
****
Pd 0
SDD
****

Pd 0
SDD

--Link1--
%nprocs=28
%mem=128GB
%chk=SS_Et_DuPhos_2_SPE.chk
# PBE1PBE gen pseudo=read int=(grid=ultrafine) empiricaldispersion=GD3BJ pop=nbo guess=read geom=check

SS_Et_DuPhos_2 title 

0 1

Cl P H C 0
def2TZVP
****
Pd 0
SDD
****

Pd 0
SDD

