%nprocs=14
%mem=128GB
%chk=SS_Et_DuPhos_5.chk
# PBEPBE gen 6D pseudo=read scf=maxcycles=500 denfit int=(grid=ultrafine) empiricaldispersion=GD3BJ opt freq=noraman

 SS_Et_DuPhos

0 1
Cl    -1.20750    -3.81150    1.39040
P    -1.60510    -0.68940    0.04130
P    1.53570    -0.12880    0.27960
C    -0.97750    1.05530    -0.30010
C    0.41880    1.29230    -0.20990
C    -3.12390    -0.76050    1.04610
H    -3.31470    -1.80590    1.29300
C    -2.38000    -1.15340    -1.54820
H    -1.93530    -0.58450    -2.36600
C    2.58890    0.54850    1.61510
H    2.66540    1.63060    1.50900
C    2.85500    -0.45280    -0.95870
H    2.92030    -1.53450    -1.08580
C    -4.22210    -0.32340    0.07210
H    -5.17960    -0.75650    0.36400
H    -4.36560    0.75370    0.13480
C    -3.86260    -0.73180    -1.37940
H    -4.08510    0.09890    -2.05010
H    -4.52160    -1.54090    -1.69690
C    3.95810    -0.04660    1.27610
H    4.75920    0.48330    1.79240
H    4.00440    -1.08550    1.60470
C    4.14030    0.01630    -0.25250
H    5.00170    -0.57110    -0.57220
H    4.34900    1.05020    -0.53100
C    -3.02970    0.03560    2.35520
H    -2.63970    1.03410    2.15290
H    -4.02840    0.17650    2.76990
C    -2.23570    -2.65930    -1.84040
H    -2.85700    -2.92010    -2.69810
H    -2.63390    -3.23270    -1.00300
C    2.06170    0.23960    3.02340
H    2.85000    0.42120    3.75480
H    1.81170    -0.81820    3.10490
C    2.64090    0.18510    -2.34450
H    2.56080    1.26740    -2.25140
H    3.52740    0.00780    -2.95440
C    -2.15450    -0.66450    3.40410
H    -2.03210    -0.04110    4.28990
H    -1.16420    -0.89830    3.01620
H    -2.60530    -1.60520    3.72220
C    -0.80040    -3.11280    -2.13830
H    -0.10420    -2.84710    -1.34610
H    -0.75740    -4.19520    -2.26240
H    -0.44150    -2.66490    -3.06410
C    0.84120    1.09290    3.39230
H    0.04680    1.00330    2.65250
H    1.10690    2.14870    3.44920
H    0.43710    0.80120    4.36160
C    1.41830    -0.35040    -3.09900
H    1.51710    -1.41950    -3.28360
H    0.49420    -0.18550    -2.54750
H    1.31350    0.14330    -4.06520
C    -1.82820    2.11620    -0.67690
H    -2.88730    1.96120    -0.78300
C    -1.30910    3.39790    -0.93800
H    -1.97220    4.20100    -1.22420
C    0.07300    3.63110    -0.83200
H    0.47420    4.61360    -1.03330
C    0.93290    2.57920    -0.47020
H    1.99440    2.76280    -0.39980
Cl    2.07700    -3.24920    1.52710
Pd    0.20660    -2.04320    0.83660

H Cl C P 0
6-31G(d)
****
Pd 0
LANL2DZ
****

Pd 0
LANL2DZ

