%nprocs=14
%mem=128GB
%chk=SS_Et_DuPhos_3.chk
# PBEPBE gen 6D pseudo=read scf=maxcycles=500 denfit int=(grid=ultrafine) empiricaldispersion=GD3BJ opt freq=noraman

 SS_Et_DuPhos

0 1
Cl    -1.11900    -3.92140    1.15230
P    -1.61220    -0.69210    0.12070
P    1.52330    -0.10700    0.28410
C    -0.99620    1.02200    -0.34930
C    0.39640    1.27660    -0.28280
C    -2.95180    -0.70060    1.37910
H    -2.69410    -1.41030    2.16680
C    -2.58390    -1.13910    -1.37150
H    -2.37460    -0.44890    -2.19020
C    2.37670    0.65890    1.71470
H    2.40420    1.73800    1.56180
C    2.98330    -0.35230    -0.80210
H    3.13810    -1.42850    -0.88910
C    -4.15760    -1.25790    0.60310
H    -4.17100    -2.34220    0.72530
H    -5.10430    -0.89760    1.00680
C    -4.03530    -0.94720    -0.90000
H    -4.32610    0.09040    -1.06170
H    -4.73310    -1.54740    -1.48500
C    3.81030    0.15110    1.52840
H    4.51770    0.73360    2.11940
H    3.88620    -0.88220    1.86990
C    4.14910    0.21910    0.02480
H    5.08010    -0.30470    -0.19450
H    4.30810    1.26340    -0.24730
C    -3.23020    0.65860    2.05090
H    -3.53360    1.39490    1.30870
H    -4.08720    0.54650    2.71590
C    -2.31100    -2.57240    -1.86320
H    -2.99090    -2.79810    -2.68560
H    -2.55830    -3.28720    -1.07980
C    1.75420    0.43060    3.10830
H    0.90480    1.10440    3.21780
H    2.47120    0.74960    3.86560
C    2.86640    0.21890    -2.22820
H    2.77120    1.30310    -2.19590
H    3.79820    0.02250    -2.75960
C    -2.05800    1.20800    2.87630
H    -2.34700    2.12250    3.39440
H    -1.19950    1.45130    2.25380
H    -1.73240    0.48940    3.62870
C    -0.87510    -2.81030    -2.34990
H    -0.13570    -2.61870    -1.57560
H    -0.74540    -3.84270    -2.67550
H    -0.64370    -2.16730    -3.19910
C    1.27980    -0.98880    3.43930
H    2.08590    -1.71360    3.33350
H    0.44350    -1.29250    2.81420
H    0.93450    -1.04110    4.47210
C    1.70600    -0.36590    -3.04480
H    1.78920    -1.45000    -3.12250
H    0.73790    -0.13350    -2.60250
H    1.70380    0.03900    -4.05680
C    -1.86520    2.04340    -0.78720
H    -2.92540    1.86120    -0.85930
C    -1.36380    3.31200    -1.13250
H    -2.03860    4.08830    -1.46230
C    0.01630    3.56830    -1.04630
H    0.40370    4.54210    -1.30810
C    0.89190    2.55240    -0.62200
H    1.95040    2.75560    -0.56020
Cl    2.16810    -3.35730    1.08880
Pd    0.24990    -2.09540    0.68030

H Cl C P 0
6-31G(d)
****
Pd 0
LANL2DZ
****

Pd 0
LANL2DZ

