%nprocs=14
%mem=128GB
%chk=RR_Me_Ferrolane_2.chk
# PBEPBE gen 6D pseudo=read scf=maxcycles=500 denfit int=(grid=ultrafine) empiricaldispersion=GD3BJ opt freq=noraman

 RR_Me_Ferrolane

0 1
Fe    -0.07140    2.65000    0.08020
P    -1.81860    -0.29560    0.03330
P    1.79810    -0.23210    0.09880
C    -1.55140    1.46030    -0.58630
C    -0.69480    1.82230    -1.67720
C    -0.68460    3.24600    -1.80890
C    -1.55860    3.78310    -0.81420
C    -2.10480    2.68640    -0.07190
C    1.45270    1.50510    0.73430
C    1.96190    2.75640    0.23400
C    1.37500    3.82430    0.98740
C    0.52090    3.24510    1.97590
C    0.58140    1.82400    1.82720
C    -3.30100    -0.81590    -0.90880
C    -4.43060    -0.14540    -0.12250
C    -2.63060    -0.09390    1.66340
C    -4.13290    -0.29940    1.38050
C    3.31110    -0.78200    0.99770
C    4.32350    -1.01980    -0.13270
C    2.54290    0.05110    -1.55070
C    4.05260    -0.04210    -1.28900
H    -0.10990    1.13480    -2.26880
H    -0.09030    3.81530    -2.50910
H    -1.74410    4.83140    -0.62840
H    -2.78000    2.77740    0.76610
H    2.63390    2.88010    -0.60230
H    0.02220    1.11070    2.41270
Cl    -1.54970    -3.61980    0.02560
Cl    1.64910    -3.56160    0.07100
Pd    0.01790    -1.88530    0.05500
H    -3.42470    -1.89540    -0.83660
C    -3.23550    -0.43250    -2.39300
H    -2.46990    0.91420    2.04250
C    -2.05810    -1.09590    2.67340
H    -5.40180    -0.56830    -0.38130
H    -4.47210    0.91550    -0.37430
H    -4.74270    0.38390    1.97240
H    -4.42560    -1.30680    1.68020
H    1.52300    4.88070    0.81410
H    -0.09330    3.78470    2.68240
H    -2.34260    -0.84290    -2.86450
H    -3.22270    0.64830    -2.53600
H    -4.10140    -0.81920    -2.93020
H    -0.98320    -0.96800    2.80000
H    -2.23430    -2.12550    2.36220
H    -2.52160    -0.96740    3.65190
H    3.12960    -1.71320    1.53460
C    3.81030    0.26100    2.00970
H    2.29440    1.03110    -1.95600
C    2.04100    -1.02300    -2.52410
H    4.20500    -2.03940    -0.50190
H    5.35200    -0.94270    0.22170
H    4.41840    0.94380    -0.99870
H    4.60440    -0.32300    -2.18670
H    4.06100    1.20730    1.53010
H    4.70550    -0.09150    2.52170
H    3.05870    0.46160    2.77340
H    2.33270    -2.02390    -2.20710
H    2.45430    -0.86610    -3.52070
H    0.95470    -1.00440    -2.61410

H Cl C P 0
6-31G(d)
****
Fe Pd 0
LANL2DZ
****

Fe Pd 0
LANL2DZ

