%nprocs=28
%mem=128GB
%chk=RR_Me_Ferrolane_3_SPE.chk
# PBE1PBE gen pseudo=read int=(grid=ultrafine) empiricaldispersion=GD3BJ nmr=giao 

RR_Me_Ferrolane_3 title 

0 1
Fe    -0.0410485214    2.61343565    -0.025282636
P    -1.7766356896    -0.267190305    -0.0334958701
P    1.8000391764    -0.2224607338    -0.0020810666
C    -1.5325881541    1.4310766105    -0.642123297
C    -0.684224738    1.7845824403    -1.7585114477
C    -0.6753980716    3.2128225021    -1.8870471089
C    -1.529075697    3.7574776597    -0.8707490125
C    -2.066074162    2.6677787479    -0.1063238303
C    1.4979691047    1.4794018205    0.5775840876
C    1.983401862    2.7423728562    0.0576389488
C    1.4037186929    3.8021767548    0.8332268693
C    0.572322779    3.2143782036    1.8437226138
C    0.6352034669    1.7895214565    1.69736853
C    -3.3534856737    -0.8497816067    -0.9096293102
C    -4.3143239184    -1.1451128929    0.2660586568
C    -2.5624691625    -0.0418108593    1.6633932156
C    -4.0798907704    -0.0987062408    1.370169951
C    3.2811346453    -0.7157144303    1.0487100033
C    4.4667208769    -0.1564934087    0.2390273817
C    2.7698012244    -0.0332337876    -1.6097604673
C    4.2036335426    -0.4875950557    -1.2376684093
H    -0.1044816087    1.0778669394    -2.3527220957
H    -0.0822098856    3.7850667829    -2.6010497836
H    -1.6972684574    4.8169671037    -0.6736367657
H    -2.724128723    2.7611381684    0.7578047295
H    2.6345339681    2.8768692474    -0.805760928
H    0.0925550513    1.0529922185    2.2906596807
Cl    -1.5962402379    -3.4478566154    -0.0741110125
Cl    1.7595455683    -3.3482014782    -0.2920235052
Pd    0.0327341946    -1.6949915823    -0.0905736023
H    -3.086641017    -1.786414132    -1.4225511384
C    -3.9106514543    0.1685153744    -1.9113052132
H    -2.2648252577    0.9553264325    2.0319651299
C    -2.0888464666    -1.1121607426    2.6572471032
H    -4.0941443684    -2.1546294521    0.6530120999
H    -5.3627223441    -1.138172622    -0.0834415675
H    -4.4337764827    0.8922234267    1.0278883017
H    -4.6411779487    -0.343297988    2.2901557897
H    1.5322627077    4.8692878779    0.6478661094
H    -0.0406670342    3.755499237    2.5652998348
H    -4.8090764169    -0.2564161259    -2.3932077561
H    -3.1835162152    0.4083222359    -2.7047981293
H    -4.2016256927    1.1177814567    -1.4292739897
H    -2.3044862885    -2.1292053141    2.2918903357
H    -0.9967499863    -1.0600263116    2.8107996445
H    -2.5879735274    -0.9645164264    3.6317650852
H    3.2872159253    -1.8176422683    0.9847923977
C    3.2188819824    -0.2792208558    2.5108141633
H    2.7713888713    1.0484649088    -1.8352305222
C    2.1829958683    -0.7985241807    -2.7999878368
H    5.4160696376    -0.5962508326    0.5950142101
H    4.5402726157    0.9395579857    0.385842644
H    4.9428717919    -0.019289532    -1.9117347042
H    4.2663904704    -1.5816195043    -1.3800544083
H    4.11639952    -0.6403688542    3.0433781141
H    3.1826092139    0.8189768648    2.6128316115
H    2.337716183    -0.7043569456    3.0214026963
H    2.8411623865    -0.6786850711    -3.6795031036
H    1.1793180336    -0.4342402042    -3.0773014368
H    2.0952546112    -1.8713946022    -2.563689984

P Cl H C 0
def2TZVP
****
Pd Fe 0
SDD
****

Pd Fe 0
SDD

--Link1--
%nprocs=28
%mem=128GB
%chk=RR_Me_Ferrolane_3_SPE.chk
# PBE1PBE gen pseudo=read int=(grid=ultrafine) empiricaldispersion=GD3BJ pop=nbo guess=read geom=check

RR_Me_Ferrolane_3 title 

0 1

P Cl H C 0
def2TZVP
****
Pd Fe 0
SDD
****

Pd Fe 0
SDD

