%nprocs=16
%mem=18GB
%chk=RSS-C3-Tunephos_1.chk
# PBEPBE gen 6D pseudo=read scf=maxcycles=500 denfit int=(grid=ultrafine) empiricaldispersion=GD3BJ opt freq=noraman

title 

0 1
Pd    -0.32740    -2.27960    -0.05300
P    1.61010    -0.85260    -0.02920
P    -1.79800    -0.37610    0.01640
O    -0.39070    3.97610    -1.00800
O    1.44620    3.65640    1.27200
C    3.15630    -1.63800    -0.76630
C    3.04180    -2.46380    -1.90710
C    4.17750    -3.06000    -2.48830
C    5.45020    -2.83510    -1.93350
C    5.58110    -2.01440    -0.79840
C    4.44170    -1.42110    -0.22080
C    2.16140    -0.35690    1.68710
C    2.88970    0.83030    1.91390
C    3.28570    1.19180    3.21560
C    2.96400    0.36020    4.30450
C    2.24810    -0.83220    4.08720
C    1.85020    -1.18760    2.78360
C    1.37860    0.72520    -1.04120
C    2.00120    0.80670    -2.30850
C    1.84210    1.92990    -3.13470
C    1.04840    3.00170    -2.70630
C    0.42270    2.95260    -1.44400
C    0.57590    1.81690    -0.60380
C    -0.07320    1.86920    0.72740
C    0.37700    2.86920    1.62980
C    -0.22040    3.02380    2.89510
C    -1.28260    2.19160    3.27110
C    -1.73640    1.20090    2.38580
C    -1.14950    1.01930    1.11110
C    -3.50620    -0.74610    0.72080
C    -3.63120    -1.63090    1.81530
C    -4.89140    -1.92380    2.37130
C    -6.04960    -1.33070    1.83740
C    -5.94180    -0.44690    0.74830
C    -4.67890    -0.15790    0.19560
C    -2.17740    0.34720    -1.66530
C    -2.09370    -0.47340    -2.80940
C    -2.36820    0.05010    -4.08800
C    -2.73170    1.40230    -4.23210
C    -2.82510    2.22710    -3.09550
C    -2.55330    1.69860    -1.81920
C    1.22780    5.06200    1.25580
H    2.07080    -2.64580    -2.34350
H    6.32350    -3.29300    -2.37510
H    4.57140    -0.79770    0.65020
H    3.13130    1.48010    1.08440
H    3.26660    0.63650    5.30410
H    1.30760    -2.10840    2.62710
H    2.61480    0.00170    -2.67850
H    2.32040    1.96290    -4.10270
H    0.90880    3.84470    -3.36420
H    0.14620    3.77140    3.58200
H    -1.74340    2.30530    4.24140
H    -2.55140    0.57760    2.71530
H    -2.75050    -2.09420    2.23510
H    -7.01840    -1.55520    2.25980
H    -4.62620    0.52200    -0.64030
H    -1.82320    -1.51430    -2.70920
H    -2.93930    1.80630    -5.21230
H    -2.61680    2.34140    -0.95230
C    2.30650    5.67790    2.15450
H    0.25180    5.33780    1.65680
Cl    1.03840    -4.16790    0.00990
Cl    -2.15920    -3.71330    -0.20870
C    1.34140    5.54550    -0.20710
C    0.09650    5.31010    -1.09830
H    0.36070    5.54630    -2.12850
C    -1.07820    6.22670    -0.73170
H    2.20850    5.06720    -0.66420
H    1.56280    6.61290    -0.21690
H    2.21300    6.76300    2.19860
H    2.22700    5.29600    3.17240
H    3.30550    5.43930    1.78880
H    -0.79160    7.27740    -0.77420
H    -1.90700    6.08170    -1.42500
H    -1.45430    6.01800    0.26950
H    6.55610    -1.84030    -0.36690
H    3.82950    2.11140    3.37520
H    2.00460    -1.47480    4.92080
H    4.07110    -3.69260    -3.35760
H    -2.30110    -0.58640    -4.95840
H    -3.09810    3.26710    -3.19900
H    -6.82850    0.00950    0.33280
H    -4.96910    -2.60640    3.20520

C Cl P O H 0
6-31G(d)
****
Pd 0
LANL2DZ
****

Pd 0
LANL2DZ

