%NProcShared=52
%mem=18GB
%chk=RSS-C3-Tunephos_1_SPE_NoPd.chk
# PBE1PBE/def2TZVP int=(grid=ultrafine) empiricaldispersion=GD3BJ nmr=giao 

 title 

0 1
P    1.5685735993    -0.8438814061    0.0312132922
P    -1.7553343146    -0.3736733644    -0.0416088963
O    -0.3263755888    3.9172276135    -0.9995616806
O    1.3671325778    3.6182833351    1.2668774025
C    3.0312829588    -1.6653795776    -0.7164288737
C    2.8388577032    -2.5868846382    -1.764426831
C    3.9457363592    -3.1466023084    -2.4128065241
C    5.2459728781    -2.8056556427    -2.0101304162
C    5.4381240526    -1.8994732414    -0.9585195579
C    4.3344423816    -1.3246986942    -0.3129625655
C    2.1060722099    -0.2948098143    1.690585408
C    2.8049958633    0.9110987537    1.888769732
C    3.2024691332    1.2808847407    3.1798716389
C    2.9148496944    0.4468718348    4.2699979807
C    2.2282270693    -0.7604753423    4.069942964
C    1.8185863498    -1.1351204571    2.7840888406
C    1.4101753174    0.6879472908    -0.9986011156
C    2.0660154583    0.7374991911    -2.2456187702
C    1.9342741446    1.8572621075    -3.0733897026
C    1.1594858101    2.9500202041    -2.6728290869
C    0.5075414647    2.9096331133    -1.4334263977
C    0.6061566841    1.7777831377    -0.5871211799
C    -0.110707628    1.8402771529    0.7187023513
C    0.2818737343    2.8543963256    1.624545781
C    -0.3628354904    3.0222444554    2.8574110637
C    -1.4215412025    2.1747804405    3.196423016
C    -1.8362783427    1.1719598516    2.3128733323
C    -1.1940940593    0.9983151295    1.0698819709
C    -3.3943718448    -0.8039170339    0.6667752705
C    -3.468503304    -1.7945137687    1.6657455986
C    -4.6916301755    -2.0659927373    2.2893798415
C    -5.8474834699    -1.3667145069    1.9097567795
C    -5.77737805    -0.3912339793    0.9060744062
C    -4.5531416252    -0.1044528546    0.2861045422
C    -2.1042658988    0.3964275714    -1.6631101747
C    -2.0317070586    -0.4209135717    -2.80797878
C    -2.3113302393    0.1259567348    -4.0666963681
C    -2.6572679533    1.4803909019    -4.1883615937
C    -2.7320063371    2.291881082    -3.0470024795
C    -2.4607429451    1.7531830007    -1.7829967722
C    1.2197127594    5.0638172838    1.2593628396
H    1.8229491515    -2.878287408    -2.0482030794
H    6.109920197    -3.2554697763    -2.5102373173
H    4.4879998117    -0.6218242816    0.5115259109
H    3.0014893552    1.5791742737    1.0448981424
H    3.2230749709    0.7400372731    5.2791127401
H    1.2889149557    -2.0788467933    2.6093307655
H    2.6858955295    -0.1015180689    -2.5681182955
H    2.4400771895    1.8759532054    -4.0439689086
H    1.0421191125    3.8179423956    -3.3278810843
H    -0.0135796839    3.7948013242    3.5495095714
H    -1.9253087175    2.2890833819    4.1614538801
H    -2.6697490652    0.5226664513    2.5886772877
H    -2.5719754278    -2.3635942772    1.9302322248
H    -6.805670119    -1.5906538155    2.3899317935
H    -4.5034062107    0.6537735951    -0.5012656493
H    -1.7703465894    -1.4793469271    -2.6940530968
H    -2.8658555268    1.9050828166    -5.1759609426
H    -2.4869997652    2.3957606475    -0.8977661168
C    2.3033390023    5.64916665    2.1622078724
H    0.2194551761    5.3154244135    1.6579517451
C    1.3584103927    5.533976473    -0.1986275568
C    0.1326557165    5.2858323631    -1.098586331
H    0.4239397361    5.5047164993    -2.1451181969
C    -1.0829359672    6.1370485867    -0.7434315193
H    2.2384488075    5.0187180882    -0.624926382
H    1.5800269473    6.6172316371    -0.2206272964
H    2.2343282473    6.7495896208    2.1982239157
H    2.2055524566    5.2565261429    3.187773163
H    3.3034696461    5.3750574072    1.7843567006
H    -0.8405960761    7.2092098132    -0.8271796502
H    -1.9153114448    5.909931706    -1.429061165
H    -1.4254403045    5.9303906121    0.2841799582
H    6.4508701313    -1.6406302276    -0.6323949063
H    3.7249691694    2.2312411367    3.3318043055
H    2.0045817296    -1.4132960319    4.9198444305
H    3.7899749215    -3.8675517831    -3.2215797075
H    -2.2543206814    -0.5091387042    -4.9565890206
H    -2.9900324774    3.3523857371    -3.1379539618
H    -6.6793679214    0.147379877    0.5973278181
H    -4.7442965325    -2.8416687234    3.0598909325

--Link1--
%NProcShared=52
%mem=18GB
%chk=RSS-C3-Tunephos_1_SPE_NoPd.chk
# PBE1PBE/def2TZVP int=(grid=ultrafine) empiricaldispersion=GD3BJ pop=nbo guess=read geom=check

 title 

0 1

