%nprocs=14
%mem=128GB
%chk=RR_NorPhos_3.chk
# PBEPBE gen 6D pseudo=read scf=maxcycles=500 denfit int=(grid=ultrafine) empiricaldispersion=GD3BJ opt freq=noraman

 RR_NorPhos

0 1
P    -1.59190    0.27050    0.01300
C    -2.59150    1.84930    0.14860
C    -3.82490    1.92180    -0.53320
C    -4.61720    3.08420    -0.47490
C    -4.17890    4.19650    0.26620
C    -2.94680    4.14160    0.94320
C    -2.15820    2.97610    0.88080
H    -1.21870    2.96740    1.40510
H    -2.60490    4.99630    1.50860
H    -4.78440    5.09030    0.31090
H    -5.55960    3.12100    -1.00220
H    -4.16960    1.07460    -1.11000
C    -2.82260    -1.12550    0.09120
C    -3.83570    -1.13180    1.07210
C    -4.76010    -2.19200    1.13870
C    -4.67650    -3.25610    0.22100
C    -3.66950    -3.25570    -0.76280
C    -2.74660    -2.19380    -0.82600
H    -1.98300    -2.20140    -1.58970
H    -3.60730    -4.06830    -1.47220
H    -5.38660    -4.06920    0.26850
H    -5.53490    -2.18660    1.89170
H    -3.90770    -0.31360    1.77470
C    -0.56660    -0.11710    1.47430
C    -0.95710    -0.11270    2.97050
C    -0.98220    1.28970    3.54900
C    0.27340    1.75540    3.55490
H    0.61470    2.72640    3.88500
C    1.15740    0.70260    2.91170
H    2.22280    0.79270    3.12650
C    0.44230    -0.53960    3.47840
H    0.81490    -1.48640    3.08120
H    0.49770    -0.59870    4.56790
C    0.73000    0.71130    1.41730
P    1.67170    0.02280    0.00860
C    2.24840    -1.66620    0.54150
C    3.30680    -1.80450    1.46290
C    3.73260    -3.08180    1.87510
C    3.10170    -4.23210    1.36490
C    2.04810    -4.10210    0.44030
C    1.62540    -2.82310    0.02940
H    0.81740    -2.73580    -0.68200
H    1.56550    -4.98400    0.04440
H    3.42850    -5.21300    1.67900
H    4.54530    -3.17820    2.58060
H    3.79740    -0.92480    1.85450
C    3.20740    1.06800    -0.19190
C    3.35270    2.32090    0.44370
C    4.52720    3.07940    0.27150
C    5.56880    2.59210    -0.53980
C    5.43310    1.34520    -1.17750
C    4.25790    0.58990    -1.00220
H    4.16090    -0.36720    -1.49560
H    6.22850    0.96670    -1.80310
H    6.46950    3.17340    -0.67440
H    4.62930    4.03710    0.76100
H    2.56920    2.71620    1.07090
Pd    0.03200    0.10360    -1.76000
Cl    1.68130    -0.09550    -3.38980
Cl    -1.64270    0.19120    -3.37490
H    0.51350    1.73720    1.12480
H    -1.87660    1.79580    3.88480
H    -1.77320    -0.77150    3.26930
H    -0.33520    -1.16430    1.27250

H Cl C P 0
6-31G(d)
****
Pd 0
LANL2DZ
****

Pd 0
LANL2DZ

