%nprocs=28
%mem=128GB
%chk=RR_NorPhos_2_SPE.chk
# PBE1PBE gen pseudo=read int=(grid=ultrafine) empiricaldispersion=GD3BJ nmr=giao 

RR_NorPhos_2 title 

0 1
P    -1.6237586781    0.0205740054    -0.0166977021
C    -2.4172988131    1.662776569    0.1383955062
C    -1.7976255493    2.7463370897    -0.5148846032
C    -2.3043014718    4.04309057    -0.3565702836
C    -3.4384782602    4.2619302329    0.4374138415
C    -4.0753626464    3.1804320059    1.0655721418
C    -3.5697310007    1.883114487    0.9172757787
H    -4.0842871405    1.0416535105    1.3908808719
H    -4.9755792537    3.3466027547    1.6664157977
H    -3.8394348964    5.2740539142    0.5537225099
H    -1.8210276008    4.879838148    -0.8708947942
H    -0.9383434742    2.5527190818    -1.1680014556
C    -2.9230493124    -1.2706095082    -0.0054353377
C    -3.6323158807    -1.5734878145    1.1774693135
C    -4.6082533251    -2.5779421414    1.17745484
C    -4.8793349375    -3.2931037039    0.0019964472
C    -4.1730654902    -2.9994633875    -1.1724699938
C    -3.1971834546    -1.9937384551    -1.1828693251
H    -2.6558001063    -1.7443054478    -2.1017327877
H    -4.3807702641    -3.5543483486    -2.0929677052
H    -5.64030316    -4.0803626945    0.0042367018
H    -5.1535241977    -2.8044255997    2.0995492503
H    -3.4261431781    -1.029359906    2.1033055744
C    -0.6269047346    -0.2659272363    1.5320078314
C    -0.992417109    -0.154545881    3.056022927
C    -1.1909287823    1.307613646    3.4327481967
C    0.0180444943    1.9085601595    3.3911879596
H    0.2316530688    2.9756331916    3.4990871526
C    1.0347157501    0.8609180976    2.9339767952
H    2.0969977643    1.0871601575    3.1031585604
C    0.4436151779    -0.3970602408    3.6112879714
H    0.896311658    -1.343153718    3.2678439864
H    0.4828710604    -0.335634992    4.7108384159
C    0.617054899    0.6620635004    1.4271080092
P    1.6225392724    0.0034221261    0.0164260045
C    2.2812447735    -1.6222571896    0.5217547724
C    1.7504061207    -2.7827674015    -0.0723934678
C    2.178879602    -4.045642133    0.3594404281
C    3.1364001551    -4.1518613938    1.3779679398
C    3.6767030233    -2.995224045    1.9630401157
C    3.2552847042    -1.7304001068    1.5354547396
H    3.687576907    -0.826652763    1.978172313
H    4.4326500413    -3.0798078128    2.7505350431
H    3.4719751965    -5.138836557    1.7125022801
H    1.769654514    -4.9466557222    -0.1083144689
H    1.0200705855    -2.6765083859    -0.8829723288
C    3.0713688146    1.09956375    -0.1372947511
C    3.0855695262    2.378145032    0.454907726
C    4.2064251901    3.2064234304    0.3107203312
C    5.3150133308    2.7670627761    -0.42583783
C    5.3007271631    1.497599596    -1.0228602962
C    4.1852275914    0.6642774287    -0.885261988
H    4.1610628887    -0.3133813667    -1.3734572868
H    6.1598127524    1.1561555438    -1.6088643936
H    6.1886739214    3.416814364    -0.5397282757
H    4.2107038993    4.1978748437    0.7750769201
H    2.2250925707    2.7357394324    1.0283150397
Pd    0.0275634303    -0.0665079054    -1.6228469611
Cl    1.8268985929    -0.3900736559    -3.148111721
Cl    -1.6416997626    0.1903526042    -3.3061731154
H    0.2944959867    1.6452751559    1.0309999176
H    -2.1592159674    1.7849239692    3.5976748835
H    -1.7628680706    -0.8653564032    3.3854152411
H    -0.3061779087    -1.316299257    1.3786807967

P Cl H C 0
def2TZVP
****
Pd 0
SDD
****

Pd 0
SDD

--Link1--
%nprocs=28
%mem=128GB
%chk=RR_NorPhos_2_SPE.chk
# PBE1PBE gen pseudo=read int=(grid=ultrafine) empiricaldispersion=GD3BJ pop=nbo guess=read geom=check

RR_NorPhos_2 title 

0 1

P Cl H C 0
def2TZVP
****
Pd 0
SDD
****

Pd 0
SDD

