%nprocs=28
%mem=128GB
%chk=RR_NorPhos_1_SPE_NoPd.chk
# PBE1PBE/def2TZVP int=(grid=ultrafine) empiricaldispersion=GD3BJ nmr=giao 

RR_NorPhos_1 title 

0 1
P    -1.5919989913    -0.0212480463    -0.0247505294
C    -2.3700422249    1.625294436    0.1021268446
C    -1.8004394321    2.6953411708    -0.6132310428
C    -2.3243426996    3.987505402    -0.4701651006
C    -3.4217454903    4.2107136925    0.3731744659
C    -4.0049834447    3.1406584123    1.070695159
C    -3.4834538275    1.848462179    0.9367595257
H    -3.9451119443    1.0092087657    1.467771836
H    -4.8726645236    3.3135191573    1.715904394
H    -3.8350426816    5.2191513563    0.4779443263
H    -1.8830746955    4.8169894498    -1.0317821186
H    -0.9658857319    2.4939454297    -1.2952943345
C    -2.9597436841    -1.2275325916    0.0003997643
C    -2.9268273351    -2.3579528894    0.8411604558
C    -3.9810837936    -3.2805502753    0.8206828979
C    -5.0702116732    -3.0844853365    -0.0394635928
C    -5.1016142847    -1.9653761531    -0.8847882611
C    -4.0524650587    -1.0395269111    -0.872112112
H    -4.061011315    -0.1837329963    -1.5520992918
H    -5.9437047326    -1.8159428226    -1.5678695473
H    -5.8918040672    -3.8077945466    -0.0559388074
H    -3.9482622775    -4.1549469828    1.478693932
H    -2.0797395174    -2.5294699756    1.5119071687
C    -0.607698412    -0.2975106588    1.5214386449
C    -1.0117740151    -0.195843237    3.0334985161
C    -1.2125950555    1.2640709603    3.4196841486
C    -0.0026096449    1.8639624771    3.4052549966
H    0.2112178572    2.9289591666    3.5317362403
C    1.0196849703    0.8195448792    2.9535725248
H    2.0792358336    1.040726068    3.1450605165
C    0.4144016695    -0.4433953009    3.6141019822
H    0.8752018219    -1.3875130069    3.2752350987
H    0.4369754861    -0.3854087514    4.714226976
C    0.627336077    0.6412312425    1.4347836226
P    1.6487554132    0.0023175097    0.0236220729
C    2.3438180052    -1.6012728195    0.5547123084
C    1.8337567544    -2.7836374592    -0.0144820279
C    2.2863625922    -4.029141282    0.4429169223
C    3.2475403141    -4.0964293591    1.4613503645
C    3.7677862298    -2.9179298461    2.0205016997
C    3.32199118    -1.6703427229    1.5676830655
H    3.7388255031    -0.7495412179    1.989757891
H    4.5275162539    -2.9720542534    2.8070693783
H    3.6024758402    -5.069816422    1.8152801555
H    1.894154316    -4.9469988234    -0.0064478628
H    1.1021766925    -2.7080349866    -0.8276125423
C    3.0723095306    1.1308649348    -0.1361389896
C    3.095527804    2.3805818248    0.5146216173
C    4.2000765003    3.2297891611    0.3650073121
C    5.2830030458    2.8401706653    -0.4349096438
C    5.2592061222    1.5997179724    -1.0899582873
C    4.1604417767    0.7452464612    -0.9471741591
H    4.125474117    -0.2076297336    -1.4819243589
H    6.0977262837    1.2975467722    -1.7252788844
H    6.1438561913    3.5061914368    -0.5526094477
H    4.211703631    4.1984256483    0.8752322312
H    2.2552617791    2.6990844804    1.1386720079
H    0.3019929051    1.6275677857    1.0489884813
H    -2.1823700409    1.7385844146    3.5815745944
H    -1.8042100905    -0.8984574475    3.3292249711
H    -0.2535874584    -1.3380194344    1.3734981605

--Link1--
%nprocs=28
%mem=128GB
%chk=RR_NorPhos_1_SPE_NoPd.chk
# PBE1PBE/def2TZVP int=(grid=ultrafine) empiricaldispersion=GD3BJ pop=nbo guess=read geom=check

RR_NorPhos_1 title 

0 1

