%nprocs=28
%mem=128GB
%chk=RR_NorPhos_3_SPE.chk
# PBE1PBE gen pseudo=read int=(grid=ultrafine) empiricaldispersion=GD3BJ nmr=giao 

RR_NorPhos_3 title 

0 1
P    -1.6432271553    0.1082204355    0.0308762914
C    -2.4220177104    1.7593761586    0.0589338533
C    -3.1054495621    2.1546428292    -1.1123934896
C    -3.7283579676    3.4062763694    -1.1622149067
C    -3.6665214882    4.275553839    -0.0617394389
C    -2.9746467725    3.890478358    1.0941017469
C    -2.3533829969    2.6349287012    1.1589676384
H    -1.807675965    2.3448941039    2.0599885979
H    -2.915091434    4.5681063999    1.9524198765
H    -4.1509938273    5.2562499044    -0.1093462276
H    -4.2564574369    3.7079528373    -2.0723794069
H    -3.1215075107    1.484502007    -1.9801017998
C    -3.0068354294    -1.1006705694    0.1634584939
C    -4.0921282632    -0.8356128496    1.0219392461
C    -5.0811947696    -1.8085151675    1.2137800646
C    -4.9913441167    -3.0416595139    0.5503810698
C    -3.9151763018    -3.3010373336    -0.3105157876
C    -2.922322883    -2.3328436854    -0.5101849663
H    -2.1014256353    -2.5040475589    -1.2133208778
H    -3.8549134074    -4.2550251904    -0.8439653525
H    -5.7693810577    -3.7979277038    0.6969878574
H    -5.9276275835    -1.6002066683    1.8763636544
H    -4.1674441252    0.1341243595    1.5262565924
C    -0.6093990097    -0.2656302008    1.5279039321
C    -0.8990381738    -0.4058523952    3.065828976
C    -0.9493791903    0.9569783279    3.7422849284
C    0.2947864054    1.4842152366    3.7039965774
H    0.6044515212    2.4838918646    4.0217242712
C    1.192949561    0.4844251054    2.973688036
H    2.2771259338    0.6025323936    3.1101482818
C    0.5488197156    -0.839694672    3.4618877443
H    0.9086841991    -1.737691554    2.9319121235
H    0.6630259436    -0.9735573931    4.5493452156
C    0.6846048048    0.5864607171    1.482811326
P    1.6025062684    0.0185217646    -0.0338514159
C    2.3505352391    -1.5824195368    0.4337632083
C    3.46916978    -1.6343909994    1.2893774725
C    3.9504886353    -2.872496998    1.7320229539
C    3.3237070583    -4.0594384888    1.3207737459
C    2.2223259489    -4.010285044    0.4543621533
C    1.7370515091    -2.774749355    0.0047460154
H    0.9001774299    -2.7166886381    -0.7008518529
H    1.7471257027    -4.9359374661    0.1144450736
H    3.704979058    -5.0256078725    1.6668524751
H    4.8210129331    -2.9122138641    2.3948570529
H    3.9663714155    -0.7079562092    1.5959641974
C    3.006537706    1.1707436979    -0.2363682196
C    3.1571123765    2.3028912363    0.5898895964
C    4.2582689648    3.1536635966    0.4230106099
C    5.212434681    2.8830106934    -0.5669257287
C    5.0625290807    1.7596526391    -1.393962074
C    3.9669876215    0.9037940062    -1.2353706283
H    3.8278451967    0.0449867042    -1.8986708711
H    5.7999249444    1.549831795    -2.1752313764
H    6.0706071421    3.5502648664    -0.696880615
H    4.3675070579    4.0305411665    1.0694765469
H    2.4218032365    2.5287999749    1.3673558941
Pd    -0.0632404471    -0.2073221145    -1.6033799112
Cl    1.6528305944    -0.7567721915    -3.1697976318
Cl    -1.832408689    -0.4676443382    -3.1831950752
H    0.4307195916    1.6390347303    1.2537369901
H    -1.8575046222    1.4250177777    4.1312713095
H    -1.7161284924    -1.1053207688    3.2923921768
H    -0.3401852327    -1.3007482563    1.2288637866

P Cl H C 0
def2TZVP
****
Pd 0
SDD
****

Pd 0
SDD

--Link1--
%nprocs=28
%mem=128GB
%chk=RR_NorPhos_3_SPE.chk
# PBE1PBE gen pseudo=read int=(grid=ultrafine) empiricaldispersion=GD3BJ pop=nbo guess=read geom=check

RR_NorPhos_3 title 

0 1

P Cl H C 0
def2TZVP
****
Pd 0
SDD
****

Pd 0
SDD

