%nprocs=28
%mem=128GB
%chk=M003_1_4_SPE_NoPd.chk
# PBE1PBE gen pseudo=read int=(grid=ultrafine) empiricaldispersion=GD3BJ nmr=giao 

M003_1_4 title 

0 1
Fe    0.0379182704    -1.5933840994    1.7333062322
P    1.795071294    -0.1194025772    -0.8208608953
P    -1.7666372965    0.288730295    -0.4346130448
C    1.5332063041    -1.4253257818    0.4157358408
C    0.6505141592    -2.5288247305    0.0651769103
C    0.6684244408    -3.4751782141    1.1379753774
C    1.5242379186    -2.9656694347    2.1600058883
C    2.0942928405    -1.7157503073    1.7312059051
C    -1.5221744164    -0.4267170274    1.2358931502
C    -2.0096999209    -1.6305907705    1.9084912386
C    -1.3975129701    -1.6510913301    3.2124862357
C    -0.5838008136    -0.4940949842    3.3788871634
C    -0.6376213656    0.2583189431    2.1661099725
C    3.2638775264    -0.7581951451    -1.7284869859
C    3.5426496065    -2.1324861863    -1.7107990478
C    4.6814265992    -2.629706379    -2.3614286657
C    5.5419712132    -1.7669169804    -3.0473332705
C    5.2494332308    -0.3961531161    -3.0841927481
C    4.1169365441    0.111898381    -2.4360592846
C    2.4253147477    1.4095712898    -0.0045183513
C    3.7814359602    1.6040350189    0.3190839846
C    4.1857769993    2.7682817527    0.9857796877
C    3.249786454    3.7483386332    1.3472229657
C    1.9050015349    3.5631835455    1.0078593401
C    1.4993193823    2.4135192753    0.3133629285
C    -2.4036205887    1.953348214    0.054919443
C    -3.1202500503    2.082397561    1.2573109739
C    -3.5874245624    3.3363669673    1.6705241765
C    -3.3315592741    4.475547229    0.8988694898
C    -2.6151712331    4.3452178096    -0.2986565188
C    -2.1536800413    3.0940206813    -0.7286949668
C    -3.2002279702    -0.5931691427    -1.1744778203
C    -4.5241618901    -0.2701822253    -0.8523419868
C    -5.578551333    -0.9942568886    -1.4302967123
C    -5.3212223593    -2.0291010547    -2.3364372044
C    -3.9938548431    -2.3275689677    -2.6786253575
C    -2.936685116    -1.6121475568    -2.1061051047
H    0.0575778297    -2.593158226    -0.8488400515
H    -0.1138805742    1.1949695534    1.9804075867
H    2.8857454762    -2.8262547819    -1.181267058
H    6.4344302145    -2.1543495255    -3.5440546491
H    3.907870722    1.1821175966    -2.4765421981
H    4.5320201023    0.8570098437    0.0483338817
H    3.5674387722    4.6456837357    1.8829836384
H    0.4548304446    2.3007310067    0.0065778198
H    -3.308985431    1.2091753433    1.8858013736
H    -3.6791223324    5.4572063378    1.2308056632
H    -1.611386971    3.00059261    -1.6742528687
H    -4.7479806196    0.5526054261    -0.1680773948
H    -6.146530013    -2.5770395609    -2.7962901199
H    -1.906561793    -1.8085950903    -2.4189429371
C    3.1948765148    -0.9850743271    2.4854872132
H    0.0286073256    -0.2600808034    4.2470981203
H    -1.5326882275    -2.4498538208    3.9400568575
C    -3.1090050896    -2.6094323924    1.5175650195
H    3.5319592171    -0.1421698864    1.845239699
N    4.3252887404    -1.9081434277    2.7387121279
C    4.7991539342    -2.5415915026    1.506586318
C    5.4381273817    -1.1806297284    3.3616910301
H    5.6452467029    -3.2056541688    1.7472812635
H    4.006771028    -3.156363971    1.0553608006
H    5.1504800428    -1.8068043297    0.7428856301
H    6.2696393541    -1.8833710464    3.5345366833
H    5.813679697    -0.3423946282    2.7297122997
H    5.1271359365    -0.7630968426    4.3312088956
C    1.6818860737    0.7857402238    6.1540017193
C    2.011470307    -0.5793798112    6.1179751901
C    2.5166650271    -1.1541383382    4.9437812545
C    2.6949418656    -0.3717120146    3.7886770314
C    2.3875101675    0.997675768    3.8398891932
C    1.8771327956    1.5750623383    5.0110573663
H    1.2837858691    1.2320353011    7.0708234353
H    1.8775021749    -1.1984089842    7.0113147271
H    2.8033674356    -2.2102318745    4.9174180154
H    2.5397562027    1.6161373179    2.9508232762
H    1.6342088669    2.6427299894    5.0291115891
N    -4.1733264585    -2.5713262973    2.5548426277
H    -3.5129777913    -2.3024682126    0.5319743723
C    -5.3042486721    -3.4165721844    2.1499687336
C    -4.6688687774    -1.2163580159    2.8175244541
H    -5.8022205593    -3.0535205108    1.222266521
H    -4.9663081461    -4.4510349174    1.9869680482
H    -6.0531184843    -3.4185833794    2.9597206044
H    -5.155091192    -0.7452951013    1.9330686368
H    -5.4245732213    -1.2695056917    3.619232913
H    -3.8536252399    -0.5664890148    3.1712154943
C    -1.5323010423    -6.6305949053    1.0184514483
C    -1.7641005508    -6.123934952    2.3083548295
C    -2.291719968    -4.8369275109    2.479089738
C    -2.5834546695    -4.0335473585    1.3614976095
C    -2.3773677715    -4.5588095861    0.0762795575
C    -1.8522454643    -5.8467938849    -0.0996394999
H    -1.1206808056    -7.6365729445    0.8880545326
H    -2.5118754294    -4.4543112285    3.4804012936
H    -2.6430639897    -3.9602833286    -0.7982541999
C    -4.2906908406    3.4455079705    3.001465232
F    -3.3956632353    3.5717177761    4.0206403244
F    -5.1177227599    4.5204713135    3.0513124758
F    -5.0337302361    2.3319709405    3.2608914813
C    -2.3728723384    5.5720681325    -1.1495936436
F    -3.4647729697    5.8619788433    -1.9072348115
F    -2.1226610107    6.6626264342    -0.3722866366
F    -1.3214708734    5.4064942546    -1.98770272
C    -6.9931563608    -0.665673445    -1.0188616244
F    -7.1902456893    0.6760289796    -0.946788248
F    -7.909094908    -1.1824267671    -1.8745689147
F    -7.2681331464    -1.1711802078    0.2237935708
C    -3.6911489628    -3.4451400278    -3.649390713
F    -3.4779154686    -4.6262641213    -2.9859720978
F    -4.717859729    -3.6561612276    -4.5100807549
F    -2.5735650216    -3.1919916727    -4.3721679753
C    5.0148564211    -4.0927572498    -2.2133621814
F    5.8727506704    -4.522986199    -3.171759671
F    5.6055453674    -4.3352288691    -1.002642348
F    3.8990720907    -4.8684320329    -2.2666589438
C    6.1333762703    0.5428147437    -3.8720032828
F    5.6850358084    0.6940927255    -5.1438531197
F    6.172192657    1.7782718586    -3.303313286
F    7.4115037715    0.0788183535    -3.9433064655
C    5.6270789131    2.9008452276    1.4180023643
F    6.4704637815    2.3141256651    0.530686229
F    5.9949637479    4.1983906989    1.560546822
F    5.8216111745    2.2885966381    2.6238164092
C    0.8563525121    4.5867057525    1.3732020804
F    1.3307010381    5.5191451352    2.2357271546
F    0.3877278215    5.2322941016    0.2748653667
F    -0.2144513638    3.9780202632    1.9686819007
H    -1.5400011183    -6.7392764543    3.186201245
H    -1.707014008    -6.2358427997    -1.1126887216
H    0.0723889432    -4.3835781313    1.1965925581
H    1.7054467336    -3.424594819    3.1314390684

C N F P H 0
def2TZVP
****
Fe 0
SDD
****

Fe 0
SDD

--Link1--
%nprocs=28
%mem=128GB
%chk=M003_1_4_SPE_NoPd.chk
# PBE1PBE gen pseudo=read int=(grid=ultrafine) empiricaldispersion=GD3BJ pop=nbo guess=read geom=check

M003_1_4 title 

0 1

C N F P H 0
def2TZVP
****
Fe 0
SDD
****

Fe 0
SDD

