%nprocs=14
%mem=128GB
%chk=M003_1_2.chk
# PBEPBE gen 6D pseudo=read scf=maxcycles=500 denfit int=(grid=ultrafine) empiricaldispersion=GD3BJ opt freq=noraman

 M003_1

0 1
Fe    0.04110    -1.66510    1.72370
P    1.79760    -0.10900    -0.74610
P    -1.78230    0.17030    -0.56950
C    1.54620    -1.54370    0.41660
C    0.66200    -2.61170    0.03590
C    0.61210    -3.57370    1.08770
C    1.44370    -3.12280    2.15120
C    2.05470    -1.90060    1.72040
C    -1.46250    -0.42640    1.19600
C    -1.98680    -1.51270    1.99760
C    -1.33080    -1.54410    3.26860
C    -0.44410    -0.43140    3.31380
C    -0.52750    0.24830    2.06110
C    3.42070    -0.61130    -1.55520
C    4.18650    0.34420    -2.25900
C    5.41640    0.00080    -2.85860
C    5.89220    -1.31980    -2.75000
C    5.14210    -2.29430    -2.06440
C    3.91120    -1.93430    -1.47560
C    2.27710    1.49920    0.09820
C    3.58060    1.73510    0.58620
C    3.94140    2.97860    1.15080
C    2.97820    4.00170    1.24060
C    1.67770    3.79800    0.74050
C    1.34430    2.55530    0.16270
C    -2.39200    1.91140    -0.21350
C    -2.90100    2.28380    1.05170
C    -3.38060    3.58700    1.29500
C    -3.34330    4.54240    0.25960
C    -2.83520    4.19680    -1.00820
C    -2.36950    2.88350    -1.23580
C    -3.38420    -0.61270    -1.14520
C    -4.64790    -0.15540    -0.71010
C    -5.83960    -0.76700    -1.15290
C    -5.76890    -1.85440    -2.04530
C    -4.52110    -2.31980    -2.50280
C    -3.33920    -1.69780    -2.04540
H    0.09570    -2.67480    -0.88150
H    0.05250    1.11970    1.81500
H    3.83150    1.36110    -2.34170
H    6.84000    -1.58870    -3.19300
H    3.35770    -2.69190    -0.94090
H    4.32710    0.95830    0.50710
H    3.25030    4.94910    1.68350
H    0.34840    2.43060    -0.23140
H    -2.94850    1.57020    1.86230
H    -3.70550    5.54490    0.43440
H    -2.00330    2.63330    -2.21990
H    -4.72660    0.66460    -0.01340
H    -6.67560    -2.33830    -2.37890
H    -2.38680    -2.06660    -2.39750
Cl    1.46080    0.18120    -4.05480
Cl    -1.72550    0.46530    -3.87650
Pd    -0.05010    0.16080    -2.28090
C    3.07160    -1.11080    2.51900
H    0.20210    -0.18070    4.14090
H    -1.49340    -2.26320    4.05810
C    -3.12830    -2.45430    1.66590
H    2.80270    -0.06870    2.35330
N    4.40600    -1.25170    1.93350
C    5.39970    -0.42740    2.61900
C    4.92370    -2.61730    1.85070
H    6.33010    -0.39120    2.05050
H    5.04790    0.59460    2.74660
H    5.63060    -0.81810    3.61180
H    5.83550    -2.63350    1.25300
H    5.17660    -3.02430    2.82870
H    4.21640    -3.29340    1.36900
C    2.90490    -1.50770    6.86820
C    3.20280    -2.63590    6.08250
C    3.25760    -2.52370    4.67980
C    3.00090    -1.28740    4.04220
C    2.72620    -0.15740    4.84600
C    2.67080    -0.26650    6.24890
H    2.86470    -1.59250    7.94480
H    3.39410    -3.58830    6.55580
H    3.49410    -3.40040    4.09690
H    2.55660    0.80810    4.39200
H    2.45370    0.60380    6.85190
N    -4.17530    -2.36610    2.68860
H    -3.58640    -2.15750    0.73080
C    -5.33590    -3.18850    2.34190
C    -4.66980    -1.00280    2.89030
H    -5.77760    -2.88160    1.39280
H    -5.07690    -4.24510    2.26590
H    -6.10610    -3.11270    3.11100
H    -5.09970    -0.58770    1.98000
H    -5.44160    -0.98530    3.66110
H    -3.88140    -0.33130    3.23180
C    -1.84900    -6.58710    1.15730
C    -1.91550    -6.02630    2.44690
C    -2.31160    -4.68470    2.61130
C    -2.63790    -3.88870    1.48880
C    -2.57690    -4.46430    0.20090
C    -2.18340    -5.80660    0.03450
H    -1.55050    -7.61800    1.03040
H    -2.39890    -4.27290    3.60650
H    -2.85120    -3.89350    -0.66920
C    -3.92860    3.93680    2.67030
F    -2.93050    3.95120    3.55200
F    -4.52510    5.12890    2.67430
F    -4.81800    3.01520    3.04010
C    -2.80550    5.22220    -2.13180
F    -3.92710    5.11730    -2.84150
F    -2.71280    6.46000    -1.64680
F    -1.76430    5.00130    -2.93510
C    -7.18560    -0.27600    -0.64220
F    -7.14710    1.03550    -0.40670
F    -8.14900    -0.52120    -1.52980
F    -7.47070    -0.91070    0.49330
C    -4.45150    -3.50710    -3.45100
F    -4.50640    -4.62850    -2.73500
F    -5.47380    -3.48540    -4.30510
F    -3.31310    -3.49730    -4.14440
C    6.23820    1.04990    -3.59200
F    7.13420    1.56290    -2.75090
F    6.87830    0.50370    -4.62570
F    5.46230    2.03480    -4.04580
C    5.67910    -3.71350    -1.95070
F    6.19110    -4.10030    -3.11900
F    6.64130    -3.74470    -1.03000
F    4.72360    -4.57580    -1.60330
C    5.35020    3.22660    1.66940
F    6.21990    2.36470    1.14330
F    5.74030    4.46300    1.36230
F    5.35170    3.09090    2.99440
C    0.62510    4.89210    0.81220
F    0.11090    5.08680    -0.40080
F    -0.34910    4.49780    1.62940
F    1.12770    6.04210    1.25850
H    -1.67520    -6.62860    3.31140
H    -2.14600    -6.24160    -0.95450
H    0.01240    -4.46940    1.10520
H    1.54810    -3.62030    3.10230

H Cl P N C F 0
6-31G(d)
****
Fe Pd 0
LANL2DZ
****

Fe Pd 0
LANL2DZ

