%nprocs=28
%mem=128GB
%chk=M003_1_5_SPE_NoPd.chk
# PBE1PBE gen pseudo=read int=(grid=ultrafine) empiricaldispersion=GD3BJ nmr=giao 

M003_1_5 title 

0 1
Fe    0.0333893783    -1.6051346135    1.730468819
P    1.7989460779    -0.1256660063    -0.8145124407
P    -1.7624406981    0.2871063537    -0.441724656
C    1.5377256851    -1.4302520319    0.4235905305
C    0.6657731436    -2.541465774    0.0704050654
C    0.6826014698    -3.4836489003    1.1470924345
C    1.5272118439    -2.9641553577    2.1732449789
C    2.0915295727    -1.712060153    1.7439642252
C    -1.5282187337    -0.4401821272    1.2253773373
C    -2.015795831    -1.6531982856    1.881290929
C    -1.4178074885    -1.6821155677    3.1918295579
C    -0.6112464506    -0.5227888324    3.3771253991
C    -0.6556134441    0.2400061064    2.1702606603
C    3.2748474706    -0.7586848122    -1.7147928785
C    3.5653971306    -2.1302775064    -1.687593543
C    4.7096630271    -2.6218929504    -2.3329677578
C    5.5638177032    -1.7562543322    -3.0231894164
C    5.2595085212    -0.388302062    -3.0695756554
C    4.1216119569    0.1141433308    -2.4266312256
C    2.4220524835    1.4056222527    0.0037651721
C    3.7779872214    1.6041800314    0.3263617284
C    4.1796804902    2.7693442272    0.9928064808
C    3.2408621023    3.7456652139    1.3568000894
C    1.8960734078    3.5558355948    1.0202025721
C    1.4929784399    2.4057333814    0.3245563748
C    -2.3841024815    1.9568946246    0.0480369358
C    -2.1342625485    3.0904669234    -0.7457967577
C    -2.5906787103    4.3464702204    -0.3242883979
C    -3.301531823    4.4882594905    0.8750426673
C    -3.5573224304    3.3560133431    1.6570049667
C    -3.0962404868    2.0970872788    1.2520352954
C    -3.2098061285    -0.5743853645    -1.1772949022
C    -4.5286518795    -0.2268417847    -0.8584265885
C    -5.5932305752    -0.958806217    -1.4061803462
C    -5.3511484167    -2.0306052668    -2.2733152136
C    -4.0292627646    -2.3534644621    -2.6125830415
C    -2.9618375363    -1.6234795566    -2.0782052073
H    0.0808486404    -2.6139219988    -0.8480989554
H    -0.1345768806    1.1808855186    1.9984875867
H    2.913374331    -2.8262551534    -1.154974383
H    6.4604095067    -2.1391945054    -3.5159247356
H    3.9037608358    1.1823382231    -2.4740613578
H    4.5304384959    0.8594559931    0.0545872587
H    3.5562274591    4.6436309861    1.8928630617
H    0.4482800343    2.2897232047    0.0203146637
H    -1.5955147091    2.9875942486    -1.6925158031
H    -3.6446526561    5.4735111648    1.2007196902
H    -3.2872405594    1.2290257792    1.8871701814
H    -4.7395481619    0.6159828598    -0.1949629419
H    -6.183269442    -2.6003793656    -2.6924732318
H    -1.9338712701    -1.8519809803    -2.3762172625
C    3.1814956762    -0.9723928257    2.5048641912
H    -0.0084500853    -0.29380708    4.2534779467
H    -1.5561557955    -2.4887320286    3.9101747267
C    -3.1053749463    -2.6351912566    1.4701791378
H    3.5177976056    -0.1283761619    1.8657781786
N    4.3158824728    -1.8877219618    2.7683173285
C    4.8022508895    -2.5217611424    1.5413617187
C    5.4198383086    -1.151663329    3.3970440474
H    5.651207648    -3.1792648395    1.7898300383
H    4.0171161236    -3.1433883511    1.0868696404
H    5.1537041778    -1.7871528677    0.7775641738
H    6.2540610887    -1.8489980807    3.5785429138
H    5.7952956766    -0.3134648598    2.7650902511
H    5.0991947459    -0.7327246403    4.3628183046
C    1.6239078711    0.7945888639    6.1565031007
C    1.9699826834    -0.566638477    6.1283475651
C    2.4896815385    -1.1403068979    4.9598728378
C    2.6668068892    -0.3603535479    3.802949874
C    2.3434354997    1.0055793939    3.8467633744
C    1.817763437    1.5816411746    5.0117280868
H    1.2141727008    1.2397674003    7.0687296874
H    1.8372985375    -1.1835644118    7.0233303015
H    2.7885931079    -2.1931623046    4.9394763578
H    2.4957292197    1.6222270229    2.9564435661
H    1.5620510464    2.6464239453    5.0234360238
N    -4.1841299072    -2.6056240397    2.492672339
H    -3.4964117074    -2.3272220708    0.4800104058
C    -5.309985626    -3.4453293826    2.0636598989
C    -4.6819036596    -1.253332619    2.7659376723
H    -5.7965179201    -3.0709575066    1.1343723505
H    -4.9700779495    -4.4778405124    1.8921651241
H    -6.0690676453    -3.4571678271    2.8637629388
H    -5.1593011563    -0.7719504228    1.8828380914
H    -5.4453334827    -1.3163111903    3.5596220725
H    -3.8699450397    -0.6078995637    3.134903856
C    -1.4979168788    -6.6489545732    0.995717004
C    -1.7812821923    -5.8584760972    -0.1275246343
C    -2.3184531242    -4.57391901    0.0375501958
C    -2.5710327432    -4.0574088939    1.3184542154
C    -2.3126533992    -4.8666067607    2.4400666487
C    -1.774863209    -6.1507818085    2.2798521376
H    -1.0776761263    -7.6523465157    0.8731539069
H    -2.5433519616    -3.9681842873    -0.8434581703
H    -2.5674359975    -4.4896127044    3.4353512235
C    -2.3474605822    5.5643968982    -1.1877274114
F    -3.4298714868    5.8333066502    -1.9661604463
F    -2.1187546523    6.6676976595    -0.4221335755
F    -1.2816607364    5.3967716624    -2.0073962772
C    -4.2539683473    3.4789211166    2.9902583566
F    -5.0005314161    2.3710809112    3.2620511254
F    -3.353279135    3.6094813656    4.0039477156
F    -5.0758374979    4.5580973809    3.0352908021
C    -7.0033371804    -0.6151081113    -0.9914075878
F    -7.1789044658    0.7276380757    -0.8918095845
F    -7.9238866568    -1.0989697521    -1.8617322682
F    -7.2927371685    -1.1436024543    0.2382197791
C    -3.7440362645    -3.4520131657    -3.6095645989
F    -4.7590409155    -4.3529750262    -3.6692691219
F    -3.5560366421    -2.9581162661    -4.8566706732
F    -2.6060560001    -4.1350852094    -3.2734078472
C    5.0552729091    -4.0810066696    -2.1745639317
F    5.9197145277    -4.5099744428    -3.1276109617
F    5.6443461358    -4.3106781855    -0.9605410362
F    3.9463755476    -4.8666461357    -2.2261501704
C    6.1364724151    0.5530708223    -3.8622679322
F    5.6888297169    0.6920267627    -5.1357511907
F    6.1636923279    1.7925693553    -3.3017329795
F    7.4187047509    0.0997585478    -3.9285702922
C    5.6216856295    2.9089241952    1.4206590834
F    5.9859094652    4.2087066991    1.5522948172
F    5.8211361443    2.3069528273    2.6307669067
F    6.4646120219    2.3180292443    0.5357787632
C    0.8456894905    4.5754782378    1.3910801981
F    1.3176669199    5.5018321374    2.2615203233
F    0.3783437875    5.2295185279    0.2971348798
F    -0.2254249041    3.96140124    1.9805496337
H    -1.5944919871    -6.2386140648    -1.1371963624
H    -1.5777019591    -6.7702017966    3.1612785174
H    0.0925162703    -4.3959102294    1.2054147512
H    1.7044992421    -3.4178637271    3.1478595856

C N F P H 0
def2TZVP
****
Fe 0
SDD
****

Fe 0
SDD

--Link1--
%nprocs=28
%mem=128GB
%chk=M003_1_5_SPE_NoPd.chk
# PBE1PBE gen pseudo=read int=(grid=ultrafine) empiricaldispersion=GD3BJ pop=nbo guess=read geom=check

M003_1_5 title 

0 1

C N F P H 0
def2TZVP
****
Fe 0
SDD
****

Fe 0
SDD

