%nprocs=28
%mem=128GB
%chk=M003_1_3_SPE_NoPd.chk
# PBE1PBE gen pseudo=read int=(grid=ultrafine) empiricaldispersion=GD3BJ nmr=giao 

M003_1_3 title 

0 1
Fe    -0.007848362    -1.4974359897    1.6768757416
P    1.7984512787    -0.0735216738    -0.7894203292
P    -1.7838977129    0.2983138221    -0.5452403664
C    1.5083812263    -1.4256009952    0.3877113009
C    0.5655989362    -2.4559411688    -0.0129331377
C    0.4714419934    -3.4177814407    1.0372982665
C    1.3304094609    -2.9975079598    2.0962437543
C    2.0007641796    -1.7755981143    1.7203500694
C    -1.5193981296    -0.2786729104    1.1752973768
C    -2.0309155259    -1.3795837449    1.9943675506
C    -1.3226083221    -1.324859862    3.2486618764
C    -0.4184496937    -0.2205526097    3.2404864486
C    -0.5295353823    0.4273730837    1.9719806545
C    3.3593265449    -0.5859807116    -1.6115937648
C    4.2018470581    0.3701984798    -2.205094377
C    5.3974548383    -0.035605581    -2.8114264939
C    5.7586940965    -1.3885054312    -2.8414695389
C    4.9081428033    -2.338172963    -2.261516469
C    3.7083352911    -1.9434400298    -1.6552810405
C    2.2780670527    1.5022734091    0.0391251394
C    3.5201482686    1.6792150548    0.6782609611
C    3.8386671563    2.9281607883    1.2324843691
C    2.9380133905    4.0019023818    1.1581675923
C    1.715336306    3.8257113513    0.5046542057
C    1.3929973627    2.5868139121    -0.0669045949
C    -2.465927271    1.9825532431    -0.2015694081
C    -3.1367094408    2.2062714148    1.0119369117
C    -3.6761728398    3.4672141316    1.3016031565
C    -3.5315652003    4.5209059849    0.3945165982
C    -2.8522780898    4.2981018636    -0.812414641
C    -2.3248768257    3.0387578129    -1.1213746415
C    -3.2109922541    -0.6577405949    -1.2027467167
C    -4.5336497134    -0.3180231243    -0.8927222447
C    -5.5913385314    -1.0894181399    -1.4004934878
C    -5.3380532607    -2.1893986658    -2.2257613611
C    -4.0113294918    -2.5089676962    -2.5553457242
C    -2.9515282347    -1.7476696667    -2.0517192606
H    0.0039386026    -2.4517528502    -0.9484559572
H    0.0451058597    1.2933001279    1.644636708
H    3.9355672317    1.4287788104    -2.1949471606
H    6.6965481771    -1.6979320935    -3.3097012069
H    3.0560265411    -2.6991934732    -1.2126458409
H    4.224476162    0.8396951013    0.734284678
H    3.1997085785    4.9726552064    1.5851275366
H    0.4578874536    2.4655232921    -0.6253549488
H    -3.242511787    1.400229225    1.7412411897
H    -3.9366098159    5.5092765555    0.6269691184
H    -1.8189042228    2.8697358381    -2.0766114186
H    -4.7544068443    0.5518791071    -0.2678678899
H    -6.1651801135    -2.7775160605    -2.6297493715
H    -1.9248693521    -1.9697148624    -2.3555288373
C    3.0681727012    -1.0519515169    2.5128112997
H    0.2908222464    0.0304134062    4.0293078484
H    -1.4528678733    -2.0363720962    4.0621601425
C    -3.2033988667    -2.3255872404    1.7644819022
H    2.8673056342    0.0320290174    2.4156818743
N    4.3980312158    -1.2428788906    1.8640877463
C    5.4753518335    -0.6178388677    2.6372260212
C    4.7671225058    -2.6184782377    1.5285762361
H    6.3690873564    -0.5264225682    1.9965507798
H    5.1768547456    0.3884122631    2.9656671478
H    5.7506738713    -1.2005158162    3.5436271454
H    5.612570109    -2.5986852575    0.8213855499
H    5.082446745    -3.2181810513    2.4117580573
H    3.9300717681    -3.1352274517    1.0358065394
C    3.0393795406    -1.732952136    6.8182765812
C    3.2865702299    -2.807975397    5.9526616539
C    3.2861516548    -2.6155612846    4.5639056519
C    3.0334401648    -1.3423088328    4.0127878991
C    2.8207652259    -0.267288042    4.8974394428
C    2.8122320595    -0.456315301    6.2857986749
H    3.0370378429    -1.8874868437    7.9018579808
H    3.4843115814    -3.8050967705    6.3597488071
H    3.489627833    -3.4667517852    3.908432251
H    2.6784714972    0.7398557226    4.4852548584
H    2.6380476754    0.395624247    6.9511092338
N    -4.1847876679    -2.1492872744    2.8666992873
H    -3.6655750019    -2.0701407973    0.7889898279
C    -5.3685484648    -2.9871056388    2.630360387
C    -4.6165116104    -0.7555268028    3.008453853
H    -5.9155514228    -2.7060012445    1.7019320818
H    -5.0773784448    -4.0459065445    2.5609115373
H    -6.059327135    -2.8712531555    3.4822767485
H    -5.1259621951    -0.3576179992    2.1000820424
H    -5.3329599849    -0.690518876    3.84429014
H    -3.7601514201    -0.1085326114    3.2539834523
C    -1.8720270274    -6.454054718    1.4531179157
C    -1.9053792206    -5.8215145544    2.7074848941
C    -2.3530588924    -4.4988070219    2.8221285112
C    -2.762155525    -3.7840303487    1.6811162209
C    -2.7574689565    -4.4350255137    0.4378592944
C    -2.3119162751    -5.7591076246    0.317438372
H    -1.5204993757    -7.487231052    1.3669518776
H    -2.4172654174    -4.0209360926    3.804173644
H    -3.1107964782    -3.9032260514    -0.4480675355
C    -4.3483604872    3.6720364444    2.6371147118
F    -5.1654603124    4.754843301    2.6362075035
F    -5.0963171815    2.5838312481    2.9831088646
F    -3.430971252    3.8504852574    3.6278713482
C    -2.7049377989    5.4534932438    -1.776959621
F    -1.8646025466    5.1683737338    -2.797300066
F    -3.9104716506    5.79598024    -2.309483901
F    -2.2283192333    6.5570677525    -1.1332732558
C    -7.000218341    -0.7236222767    -1.0019453784
F    -7.930472567    -1.4043976962    -1.7150529314
F    -7.2176058291    -0.9995037288    0.3218835292
F    -7.2306813855    0.6048971466    -1.164350329
C    -3.725208196    -3.7147673658    -3.4186695342
F    -3.6917019832    -4.8586614228    -2.6607314675
F    -4.6863538707    -3.8969880219    -4.3581612055
F    -2.5285141455    -3.6186496868    -4.0450583987
C    6.2706408306    0.9929792709    -3.4906452751
F    6.1977194743    2.1979538593    -2.861965414
F    7.5771801158    0.6088701403    -3.4989378553
F    5.8972385533    1.1856759942    -4.7813650444
C    5.3404431236    -3.7816594721    -2.2105613129
F    6.2612193686    -3.9808230736    -1.2164316759
F    4.2993308022    -4.6191458671    -1.9609899813
F    5.9271108635    -4.1735062701    -3.3703635022
C    5.1428737844    3.1131447537    1.9708891399
F    6.1381719974    2.361597496    1.4362867934
F    5.5472595848    4.4075078224    1.9715398048
F    5.0109395197    2.7356580947    3.2824168724
C    0.7026944517    4.9427975072    0.413556628
F    1.2059677071    6.1296859006    0.8312257922
F    0.2607000981    5.0957466167    -0.8618526599
F    -0.3866172187    4.6606450023    1.1873758069
H    -1.588571914    -6.3661015346    3.6033703265
H    -2.3192390275    -6.240311271    -0.6657603175
H    -0.1928529826    -4.2794863285    1.0550924728
H    1.4090479514    -3.4766584211    3.0705024283

C N F P H 0
def2TZVP
****
Fe 0
SDD
****

Fe 0
SDD

--Link1--
%nprocs=28
%mem=128GB
%chk=M003_1_3_SPE_NoPd.chk
# PBE1PBE gen pseudo=read int=(grid=ultrafine) empiricaldispersion=GD3BJ pop=nbo guess=read geom=check

M003_1_3 title 

0 1

C N F P H 0
def2TZVP
****
Fe 0
SDD
****

Fe 0
SDD

