%nprocs=14
%mem=128GB
%chk=M003_1_5.chk
# PBEPBE gen 6D pseudo=read scf=maxcycles=500 denfit int=(grid=ultrafine) empiricaldispersion=GD3BJ opt freq=noraman

 M003_1

0 1
Fe    0.08340    -1.73550    1.74350
P    1.84190    -0.10260    -0.70510
P    -1.75340    0.12490    -0.53770
C    1.60500    -1.54450    0.45440
C    0.75860    -2.63380    0.05200
C    0.73010    -3.61290    1.09130
C    1.53540    -3.14850    2.17150
C    2.11430    -1.91200    1.75180
C    -1.45040    -0.53430    1.20400
C    -1.95820    -1.66250    1.95640
C    -1.34220    -1.70990    3.24450
C    -0.51280    -0.56130    3.34590
C    -0.56380    0.14690    2.10910
C    3.42090    -0.65040    -1.57500
C    3.79550    -2.01130    -1.64050
C    4.97010    -2.41780    -2.30780
C    5.78970    -1.44900    -2.92010
C    5.43320    -0.08730    -2.87850
C    4.24800    0.29770    -2.21760
C    2.37840    1.46920    0.17420
C    3.71080    1.69010    0.58960
C    4.09950    2.89530    1.21080
C    3.14040    3.90650    1.42060
C    1.81000    3.71840    0.99460
C    1.44620    2.50940    0.36560
C    -2.35360    1.85270    -0.10770
C    -2.25040    2.88430    -1.06440
C    -2.68530    4.19620    -0.77710
C    -3.24590    4.48010    0.48390
C    -3.36760    3.46440    1.45310
C    -2.91620    2.16300    1.15170
C    -3.34590    -0.64340    -1.15650
C    -4.61500    -0.21590    -0.70800
C    -5.79940    -0.81820    -1.18240
C    -5.71530    -1.86920    -2.11640
C    -4.46090    -2.31170    -2.57900
C    -3.28760    -1.69000    -2.10040
H    0.20410    -2.70470    -0.87220
H    -0.00700    1.04560    1.90890
H    3.18900    -2.77500    -1.17530
H    6.69390    -1.74900    -3.42940
H    3.97190    1.34240    -2.21670
H    4.46430    0.92920    0.44050
H    3.42820    4.82750    1.90680
H    0.42510    2.39760    0.03540
H    -1.84020    2.68350    -2.04260
H    -3.58330    5.48200    0.70620
H    -3.01980    1.40160    1.91250
H    -4.70280    0.57410    0.02130
H    -6.61790    -2.34000    -2.47870
H    -2.33160    -2.02940    -2.47200
Cl    1.50700    0.36210    -3.99260
Cl    -1.67990    0.58100    -3.81780
Pd    -0.00930    0.21990    -2.22820
C    3.17770    -1.17970    2.54600
H    0.07250    -0.30370    4.21170
H    -1.50390    -2.45550    4.00920
C    -3.06020    -2.62510    1.55970
H    3.53490    -0.35880    1.93900
N    4.33540    -2.04770    2.78210
C    4.88860    -2.60610    1.54850
C    5.42600    -1.32280    3.43830
H    5.76030    -3.22690    1.76070
H    4.16970    -3.25260    1.04400
H    5.19290    -1.82230    0.85440
H    6.28090    -1.97990    3.60450
H    5.76430    -0.47510    2.84040
H    5.13290    -0.94560    4.41860
C    1.80160    0.51860    6.30830
C    1.98300    -0.87270    6.19070
C    2.40930    -1.42580    4.96750
C    2.65080    -0.59370    3.85020
C    2.47890    0.80200    3.98190
C    2.05270    1.35650    5.20490
H    1.47640    0.94350    7.24740
H    1.80490    -1.51490    7.04130
H    2.58190    -2.49000    4.89170
H    2.68110    1.45830    3.15280
H    1.92050    2.42480    5.30110
N    -4.13390    -2.61510    2.55890
H    -3.50610    -2.30200    0.62730
C    -5.26130    -3.45250    2.14490
C    -4.67360    -1.27820    2.81440
H    -5.69220    -3.11000    1.20300
H    -4.96880    -4.49570    2.02120
H    -6.04920    -3.43850    2.89940
H    -5.09760    -0.83260    1.91610
H    -5.46100    -1.32090    3.56820
H    -3.91350    -0.60040    3.20440
C    -1.63450    -6.68640    0.90130
C    -1.94520    -5.85950    -0.19510
C    -2.38710    -4.53950    0.02060
C    -2.51930    -4.03310    1.33190
C    -2.21230    -4.87370    2.42690
C    -1.77010    -6.19390    2.21320
H    -1.29830    -7.70030    0.73640
H    -2.64040    -3.93120    -0.83050
H    -2.34740    -4.51200    3.43640
C    -2.56280    5.28690    -1.83080
F    -3.63870    5.25360    -2.61440
F    -2.47400    6.49080    -1.26620
F    -1.47730    5.08690    -2.57930
C    -3.97060    3.75400    2.81940
F    -4.80880    2.77430    3.15880
F    -2.99600    3.82230    3.72430
F    -4.64290    4.90520    2.82080
C    -7.15340    -0.35870    -0.66370
F    -7.12060    0.93470    -0.34280
F    -8.10030    -0.54520    -1.58260
F    -7.45860    -1.06600    0.42270
C    -4.37110    -3.44780    -3.58680
F    -5.37820    -4.30400    -3.41870
F    -4.42520    -2.94730    -4.81880
F    -3.22400    -4.11200    -3.43810
C    5.35130    -3.89030    -2.34170
F    6.21750    -4.14330    -3.32300
F    5.91080    -4.21870    -1.17850
F    4.26770    -4.64300    -2.52970
C    6.31050    0.95680    -3.55300
F    5.93450    1.09050    -4.82310
F    6.19250    2.13530    -2.94010
F    7.59080    0.58800    -3.51590
C    5.53770    3.06940    1.67280
F    5.82140    4.34790    1.91840
F    5.71420    2.36210    2.78730
F    6.37140    2.61540    0.73770
C    0.75280    4.79100    1.20140
F    1.24160    5.86340    1.82210
F    0.26680    5.15680    0.01710
F    -0.24010    4.28340    1.92960
H    -1.85100    -6.24180    -1.20180
H    -1.54460    -6.83120    3.05630
H    0.16330    -4.52980    1.08980
H    1.68690    -3.64120    3.12070

H Cl P N C F 0
6-31G(d)
****
Fe Pd 0
LANL2DZ
****

Fe Pd 0
LANL2DZ

