%nprocs=16
%mem=18GB
%chk=SSSS-Ph-BIBOP_1.chk
# PBEPBE gen 6D pseudo=read scf=maxcycles=500 denfit int=(grid=ultrafine) empiricaldispersion=GD3BJ opt freq=noraman

title 

0 1
P    11.18560    -5.98240    7.32440
P    13.30720    -3.82540    6.28210
O    10.47110    -6.28370    4.76560
O    11.87560    -3.73990    4.02560
C    11.52820    -7.55600    6.42780
C    12.19890    -8.71410    6.87810
C    12.24860    -9.83140    6.01430
H    12.75000    -10.73240    6.33810
C    11.66750    -9.78310    4.72890
H    11.71700    -10.64570    4.08070
C    11.04830    -8.60090    4.27820
H    10.62640    -8.54030    3.28560
C    11.00430    -7.48860    5.13420
C    10.93200    -5.24980    5.64100
H    10.17910    -4.46370    5.69640
C    12.25150    -4.68960    5.02780
H    12.82260    -5.49410    4.56440
C    11.75260    -2.49380    4.57680
C    11.05040    -1.44770    3.95660
H    10.59770    -1.59640    2.98720
C    10.93130    -0.21530    4.62810
H    10.38810    0.59770    4.16900
C    11.49520    -0.05170    5.91170
H    11.37000    0.88710    6.43230
C    12.20690    -1.10240    6.53330
C    12.36000    -2.31260    5.82200
C    9.51290    -6.07890    8.13390
C    9.23160    -4.70490    8.76290
H    8.26090    -4.68970    9.25950
H    9.22640    -3.91520    8.01050
H    9.98270    -4.44580    9.50960
C    8.41750    -6.43190    7.10870
H    8.61710    -7.38420    6.61700
H    8.31580    -5.67450    6.33230
H    7.44300    -6.51920    7.58980
C    9.52400    -7.18160    9.20650
H    8.55020    -7.27100    9.68870
H    10.24700    -6.99960    9.99520
H    9.75640    -8.15250    8.76890
C    15.02420    -3.72460    5.57200
C    15.77650    -2.54510    6.21210
H    15.88430    -2.64360    7.28750
H    16.78310    -2.45260    5.80350
H    15.26390    -1.60250    6.02080
C    14.98440    -3.48580    4.04990
H    15.99070    -3.39530    3.64020
H    14.45420    -2.56670    3.79960
H    14.50120    -4.30190    3.51400
C    15.72510    -5.05640    5.88460
H    15.19620    -5.89980    5.43880
H    15.78540    -5.23390    6.95870
H    16.74380    -5.06690    5.49570
Pd    12.97090    -4.83100    8.42880
Cl    14.80590    -3.75970    9.37640
Cl    12.48220    -5.76690    10.50200
C    14.21850    -8.91930    10.66500
C    12.99490    -9.59200    10.48450
C    12.32790    -9.52070    9.24590
C    12.86990    -8.77010    8.18170
C    14.09770    -8.10060    8.37200
C    14.77210    -8.17480    9.60620
H    14.73000    -8.97120    11.61530
H    12.56840    -10.16370    11.29570
H    11.39340    -10.04560    9.11050
H    14.53280    -7.53840    7.55890
H    15.71060    -7.65740    9.74340
C    13.66040    -0.54780    10.53840
C    12.52860    -1.35030    10.30030
C    12.06590    -1.53890    8.98350
C    12.72400    -0.92690    7.89520
C    13.85180    -0.11760    8.14510
C    14.32280    0.06820    9.45950
H    14.02200    -0.40790    11.54700
H    12.01970    -1.82440    11.12720
H    11.18980    -2.14540    8.80730
H    14.35920    0.36420    7.32190
H    15.19160    0.68440    9.64010

C Cl O H P 0
6-31G(d)
****
Pd 0
LANL2DZ
****

Pd 0
LANL2DZ

