%NProcShared=52
%mem=18GB
%chk=R-pTol-SDP_2_SPE_NoPd.chk
# PBE1PBE/def2TZVP int=(grid=ultrafine) empiricaldispersion=GD3BJ nmr=giao 

 title 

0 1
P    0.7071978547    1.0229252067    -0.2494260412
C    1.3660209416    0.3963764001    -1.8605696548
C    1.279820342    -0.9580548987    -2.235652956
C    1.9721880858    -1.427737151    -3.3599268721
C    2.772877318    -0.5709805805    -4.1336325991
C    2.8753363546    0.775159512    -3.7326092437
C    2.1891628314    1.2571232106    -2.6154515197
H    2.2830228574    2.3076450462    -2.3321404349
H    3.5026867489    1.4637887586    -4.3100692016
C    3.4928661762    -1.0703785681    -5.3629545254
H    2.9535560958    -0.780147305    -6.2838375378
H    3.580279858    -2.1695741034    -5.3639795358
H    4.5079829564    -0.6437735937    -5.4372899639
H    1.888242008    -2.48522998    -3.6367718893
H    0.6769912698    -1.6584516426    -1.6511276238
C    2.3047248716    0.9358206518    0.6651153199
C    3.0779802    -0.2422010885    0.6768934254
C    4.3517737657    -0.242945562    1.2512886247
C    4.9060987772    0.9356021567    1.7904780309
C    4.152581345    2.11936255    1.7110832436
C    2.8661753151    2.1252187259    1.1599582118
H    2.2910758054    3.0568912393    1.0997494104
H    4.5744664169    3.0546925614    2.0956471327
C    6.2666756703    0.9253582154    2.4439077545
H    6.1779532917    0.7737241614    3.5367711465
H    6.7962471041    1.8808513874    2.2921505054
H    6.9013108069    0.1131590633    2.0518375031
H    4.9402485963    -1.1680157539    1.2591809885
H    2.698558264    -1.1508241215    0.1982068832
C    -0.5184398167    -0.2583794816    0.2565093642
C    -0.8208485069    -0.726179524    1.5562997162
C    -1.9597481622    -1.5466043096    1.7514061355
C    -2.7918119065    -1.9147832713    0.6935910182
C    -2.5109884367    -1.4301748875    -0.5907755662
C    -1.4092979923    -0.5971225035    -0.7960121932
H    -1.2378845076    -0.1821683081    -1.7942039655
H    -3.1671433252    -1.6743116887    -1.4322203533
H    -3.6672936621    -2.5485523464    0.8736917855
C    -2.1225961982    -1.9370354887    3.2027343013
H    -3.1672249992    -1.8305169405    3.5444111188
C    -1.1647618793    -0.9797449938    3.9350246469
H    -0.713245035    -1.4143170263    4.8424426373
H    -1.7037800506    -0.0692748964    4.2339168092
C    -0.0682225177    -0.6083943769    2.8821490129
C    0.6561730985    0.6658965453    3.317616761
C    1.823975605    0.3028380399    4.0336343513
C    2.6417659281    1.2566182241    4.6405759862
C    2.3160046153    2.6129055619    4.5076792493
C    1.1847550693    2.9901228091    3.7811801177
C    0.3090049585    2.0321446109    3.2054079448
P    -0.9668863709    2.8105813257    2.12558788
C    -2.538980749    1.8556078472    2.0133604408
C    -3.2752554075    1.5198463537    3.1669973758
C    -4.5345127021    0.9254440393    3.0507069877
C    -5.1117794171    0.688161245    1.7868501283
C    -4.3969625846    1.0901308192    0.6453882628
C    -3.1247679741    1.6637145962    0.7504790319
H    -2.5800431028    1.9773181    -0.1480218455
H    -4.8380840053    0.9442395344    -0.3470092786
C    -6.4556140313    0.0124213445    1.6614003797
H    -7.0208300046    0.392462888    0.7938746449
H    -6.3363104392    -1.0786182605    1.5178733639
H    -7.0711849011    0.1579077514    2.564731671
H    -5.094002273    0.6636022964    3.9565342626
H    -2.8795883982    1.7621592817    4.1586772436
C    -1.6439839842    4.187530777    3.1589900807
C    -1.5251939236    4.2070294181    4.5618828148
C    -2.229147321    5.1524893814    5.3198537709
C    -3.0737100504    6.0943268818    4.7087751072
C    -3.207880074    6.0471456981    3.3076395235
C    -2.5106553874    5.1115085985    2.539766883
H    -2.6299530341    5.1029142695    1.4542412874
H    -3.8694642709    6.7617296028    2.8047342109
C    -3.8067926737    7.132900387    5.5230044887
H    -4.8356815694    7.2831834319    5.1531743278
H    -3.861234179    6.8503163382    6.5874571546
H    -3.2979502054    8.1131911849    5.4661847886
H    -2.1193992057    5.1527470943    6.4106960707
H    -0.8875955751    3.4818551197    5.0749327824
H    0.9772129136    4.0554294991    3.6397406452
H    2.959320744    3.3838576221    4.9435093567
H    3.5402877356    0.9476348955    5.1862435609
C    2.0329100699    -1.1943758686    4.0355643237
H    3.0815534339    -1.4653674809    3.820500644
C    1.0637268037    -1.6870578264    2.9455896789
H    0.6472801202    -2.6887405314    3.1439090401
H    1.581476532    -1.7269841218    1.9764787569
H    1.7853623696    -1.6225583146    5.0264952346
H    -1.8387230916    -2.9963658132    3.3570073723

--Link1--
%NProcShared=52
%mem=18GB
%chk=R-pTol-SDP_2_SPE_NoPd.chk
# PBE1PBE/def2TZVP int=(grid=ultrafine) empiricaldispersion=GD3BJ pop=nbo guess=read geom=check

 title 

0 1

