%nprocs=16
%mem=18GB
%chk=R-pTol-SDP_2.chk
# PBEPBE gen 6D pseudo=read scf=maxcycles=500 denfit int=(grid=ultrafine) empiricaldispersion=GD3BJ opt freq=noraman

title 

0 1
Pd    -0.16420    3.25410    -0.09430
P    0.82900    1.04790    -0.20830
C    1.59440    0.47740    -1.85100
C    1.36050    -0.80670    -2.39890
C    1.97490    -1.21470    -3.59860
C    2.86460    -0.35250    -4.26580
C    3.15040    0.90770    -3.70920
C    2.53110    1.30550    -2.50920
H    2.79580    2.26070    -2.08170
H    3.85290    1.57210    -4.19130
C    3.53110    -0.78740    -5.55420
H    3.72750    0.07030    -6.19820
H    2.89780    -1.48320    -6.10520
H    4.47920    -1.28040    -5.33890
H    1.76940    -2.19850    -3.99500
H    0.72430    -1.51510    -1.89330
C    2.48350    0.86320    0.64900
C    3.18370    -0.36180    0.63710
C    4.45820    -0.47240    1.22500
C    5.06010    0.65380    1.81920
C    4.38480    1.88970    1.80530
C    3.10800    1.99140    1.21950
H    2.60660    2.94680    1.21340
H    4.83880    2.76440    2.24750
C    6.42990    0.54200    2.45430
H    6.51840    1.21800    3.30510
H    7.20210    0.79800    1.72860
H    6.61400    -0.47210    2.80980
H    4.97230    -1.42230    1.20720
H    2.74190    -1.22410    0.15980
C    -0.46860    -0.23830    0.25730
C    -0.77710    -0.76280    1.54730
C    -1.90640    -1.57650    1.71980
C    -2.74170    -1.94980    0.65750
C    -2.45180    -1.44480    -0.61900
C    -1.35430    -0.57910    -0.79770
H    -1.19850    -0.15780    -1.78050
H    -3.09340    -1.68620    -1.45370
H    -3.60620    -2.57600    0.82270
C    -2.14350    -1.95000    3.15490
H    -3.17680    -1.76890    3.45250
C    -1.15480    -1.05660    3.91710
H    -0.76790    -1.51040    4.82980
H    -1.68890    -0.16850    4.24000
C    -0.06870    -0.62910    2.89750
C    0.61210    0.66290    3.35560
C    1.76840    0.32250    4.07290
C    2.59060    1.27920    4.68480
C    2.25680    2.63320    4.52960
C    1.13060    2.99400    3.76320
C    0.26140    2.03450    3.18240
P    -1.08850    2.77220    2.09210
C    -2.71610    1.84630    2.09230
C    -3.37850    1.52620    3.29640
C    -4.63520    0.89150    3.28420
C    -5.25740    0.58430    2.05850
C    -4.62080    0.93140    0.85100
C    -3.36150    1.56190    0.87140
H    -2.88990    1.82510    -0.06280
H    -5.09100    0.71190    -0.09630
C    -6.60820    -0.09910    2.03770
H    -7.40440    0.64430    1.99320
H    -6.69790    -0.75290    1.16970
H    -6.75280    -0.70560    2.93210
H    -5.12030    0.65240    4.21930
H    -2.92170    1.78230    4.24100
C    -1.87300    4.19130    3.08250
C    -1.61150    4.40040    4.45790
C    -2.24010    5.43720    5.17420
C    -3.17170    6.27490    4.53360
C    -3.48440    6.04960    3.18040
C    -2.85050    5.01000    2.47380
H    -3.13570    4.83220    1.44800
H    -4.21860    6.66350    2.67900
C    -3.85360    7.38900    5.29980
H    -4.78040    7.02640    5.74480
H    -3.21150    7.76340    6.09750
H    -4.09190    8.22410    4.64040
H    -2.01280    5.57570    6.22130
H    -0.94200    3.75030    4.99760
Cl    -0.98920    5.43210    -0.02730
H    0.93950    4.04660    3.61110
H    2.88590    3.39740    4.96190
H    3.47690    0.98570    5.22800
C    2.04970    -1.15250    4.06110
H    3.08390    -1.36280    3.78660
C    1.05310    -1.69080    3.02490
H    0.70130    -2.70040    3.23840
H    1.56820    -1.75970    2.07190
H    1.85610    -1.56410    5.05180
H    -1.91530    -3.00680    3.29450
Cl    0.59200    3.76820    -2.23740

C Cl H P 0
6-31G(d)
****
Pd 0
LANL2DZ
****

Pd 0
LANL2DZ

