%nprocs=28
%mem=128GB
%chk=RR_DIOP_1_SPE.chk
# PBE1PBE gen pseudo=read int=(grid=ultrafine) empiricaldispersion=GD3BJ nmr=giao 

RR_DIOP_1 title 

0 1
P    1.277607461    4.5976950179    -0.0696800528
P    -0.4051189839    3.04840943    -2.6694861955
O    -0.6252084572    1.2859336409    1.4208728377
O    -0.4097436152    0.1376346646    -0.5782424727
C    0.7193521325    3.2399478502    1.0777838325
C    -0.1636982994    2.1943057717    0.4177328574
C    0.503439546    1.2368950955    -0.5805903292
C    0.722115317    1.7068687142    -2.021244601
C    -0.9994643698    0.0663969667    0.7411376846
C    -0.4026115614    -1.1004432211    1.5255863324
C    -2.5144982836    -0.0164124461    0.5751992937
C    1.830591283    5.8512757429    1.1511775732
C    0.8662763471    6.4436444429    1.9920608554
C    1.2625164439    7.3560404555    2.9746706639
C    2.6159191191    7.7004606366    3.1137387062
C    3.5726265218    7.1291708798    2.2657484731
C    3.1843054707    6.2055316157    1.2843685357
C    2.8349551402    4.0295060982    -0.8632189002
C    3.157248561    4.5982554606    -2.112974986
C    4.3328215016    4.2226886664    -2.7772847861
C    5.1889062783    3.2690993674    -2.2064299695
C    4.8773226896    2.7053459639    -0.9601162401
C    3.7105911583    3.0895552732    -0.284543331
C    -2.0789914676    2.2979722151    -2.5821663923
C    -3.1341300943    2.9897203465    -1.9597332512
C    -4.4038333753    2.400898517    -1.8760101418
C    -4.6274110372    1.1276720312    -2.4189113828
C    -3.5775938084    0.4379044101    -3.0443815667
C    -2.3056974403    1.0170409727    -3.1230182996
C    0.0438325946    3.0266894748    -4.4491498354
C    -0.9595146577    3.1298386364    -5.4325819521
C    -0.6117292817    3.1380585311    -6.7886479148
C    0.7330269195    3.0530337231    -7.1764866489
C    1.7346725363    2.9590874162    -6.2005025629
C    1.3946189116    2.9465949586    -4.8416637905
H    1.5842673243    2.7690945562    1.5771225245
H    0.1385264397    3.7487206818    1.8663785767
H    -1.0228606648    2.7007066901    -0.0707568982
H    1.4856879255    0.9203788768    -0.1596222513
H    0.6443111624    0.8314237331    -2.6880239341
H    1.7472392712    2.0959577008    -2.1212600663
H    0.695389714    -1.012064171    1.5531568146
H    -0.7815083679    -1.0974297095    2.5607228662
H    -0.6740563145    -2.0570490202    1.0507836191
H    -2.9996636143    -0.110928188    1.5603782142
H    -2.8909164408    0.8873065173    0.0713281665
H    -2.7824029603    -0.8906583044    -0.0400982778
H    -0.1953272356    6.217159114    1.8545884481
H    0.5079124601    7.8160935778    3.6202986836
H    2.9214085712    8.4225859429    3.8777328053
H    4.6286152003    7.4011772486    2.3630965008
H    3.9373940745    5.7643518261    0.6254982823
H    2.4671035254    5.3224573122    -2.5629181501
H    4.5716234193    4.6696564724    -3.7476996137
H    6.1004375036    2.9656288542    -2.7310717046
H    5.5458054239    1.964674511    -0.5095059805
H    3.4891497185    2.6520257909    0.6937846609
H    -2.9589690745    3.9989451022    -1.5743718527
H    -5.2212956394    2.9473090256    -1.3951057002
H    -5.6212259295    0.6721833298    -2.3584151373
H    -3.7484701359    -0.5557031288    -3.4712397097
H    -1.4931224645    0.4732121377    -3.6148677962
H    -2.0064768858    3.2141613884    -5.1321303594
H    -1.3980624005    3.220945736    -7.5457022749
H    1.0004646384    3.064859444    -8.2380176855
H    2.787606664    2.8964960864    -6.4949316893
H    2.1911484666    2.8874326024    -4.0942189053
Cl    -1.7959753126    5.7185368816    -3.4206925474
Cl    -0.2481251102    7.3736877776    -0.9216306532
Pd    -0.2573341517    5.1388462837    -1.6926010176

C O P Cl H 0
def2TZVP
****
Pd 0
SDD
****

Pd 0
SDD

--Link1--
%nprocs=28
%mem=128GB
%chk=RR_DIOP_1_SPE.chk
# PBE1PBE gen pseudo=read int=(grid=ultrafine) empiricaldispersion=GD3BJ pop=nbo guess=read geom=check

RR_DIOP_1 title 

0 1

C O P Cl H 0
def2TZVP
****
Pd 0
SDD
****

Pd 0
SDD

