%nprocs=28
%mem=128GB
%chk=RR_DIOP_2_SPE.chk
# PBE1PBE gen pseudo=read int=(grid=ultrafine) empiricaldispersion=GD3BJ nmr=giao 

RR_DIOP_2 title 

0 1
P    1.2487850552    4.5917820416    -0.0776937166
P    -0.4893576798    3.062099832    -2.6519668579
O    -0.6170152744    1.282141516    1.4444661794
O    -0.4179027863    0.1263123908    -0.5500068573
C    0.7003267875    3.2445404068    1.0828440904
C    -0.1858365325    2.1952035338    0.4325588435
C    0.4732716018    1.2453605714    -0.5798281355
C    0.6468291134    1.7166367202    -2.028317781
C    -1.017171548    0.072467018    0.767710411
C    -0.4496252082    -1.106752185    1.5542769008
C    -2.5345326106    0.0253061509    0.6011092987
C    1.8689665259    5.838266852    1.116828444
C    0.9679603594    6.3986256759    2.0453392565
C    1.4261293085    7.3115374405    3.0001179344
C    2.7774558354    7.6894601487    3.0243016781
C    3.6697188944    7.151572792    2.0886869825
C    3.2197864393    6.2274519061    1.1347232212
C    2.7648689441    3.9759833667    -0.9138772839
C    3.009904435    4.4239325115    -2.2272225226
C    4.1244814503    3.9612540943    -2.9378512144
C    5.0081068682    3.0516860265    -2.3389730337
C    4.7832493098    2.6184450243    -1.0233387162
C    3.6694460588    3.0807628257    -0.3090799296
C    -2.1549823399    2.2729944925    -2.5775823967
C    -2.3408700441    0.9230418532    -2.9406643049
C    -3.6128786482    0.3418194215    -2.8788733752
C    -4.7084131582    1.0895674827    -2.424452912
C    -4.5242541444    2.4214540988    -2.0294272
C    -3.2569414081    3.0149808337    -2.1097137535
C    0.0768388955    3.1333142803    -4.406740273
C    0.594080879    4.3397059953    -4.915827423
C    1.1261833654    4.3891800913    -6.2108558801
C    1.1365072005    3.24077287    -7.0141355957
C    0.6090635627    2.0397641141    -6.5188167004
C    0.0857942042    1.9838513447    -5.2208411033
H    1.5710090453    2.7735636392    1.5715939838
H    0.1256593219    3.7524684064    1.8762464653
H    -1.0593824558    2.6951397768    -0.0386875396
H    1.4715223614    0.9484938792    -0.1846106409
H    0.5552465168    0.8363560739    -2.6869594575
H    1.6650075537    2.1071381499    -2.1786718236
H    0.6493899433    -1.0379417592    1.59065064
H    -0.8380755935    -1.1001763716    2.5858438569
H    -0.7344773181    -2.0566759837    1.0739847755
H    -3.0206241757    -0.0560714521    1.5870343397
H    -2.8918924318    0.9362627703    0.0956966169
H    -2.8243889635    -0.842751855    -0.0127102467
H    -0.0957897611    6.1472069707    1.999791444
H    0.7200155162    7.7450648028    3.715218964
H    3.1308550198    8.4114458701    3.7674868726
H    4.7230098934    7.4500078141    2.0960228665
H    3.9225729746    5.8117033961    0.4073071633
H    2.2991814588    5.1150684599    -2.6927176315
H    4.2894257534    4.3005624868    -3.9652458822
H    5.8728108349    2.6782099907    -2.8966838733
H    5.4757207965    1.9141378464    -0.5511315902
H    3.5115516201    2.7402169513    0.7190088001
H    -1.495253793    0.3011700337    -3.2436778644
H    -3.74245053    -0.7053530866    -3.1712769803
H    -5.7008538082    0.630391778    -2.3694429734
H    -5.3706922026    3.0116705085    -1.6642505396
H    -3.1192870685    4.0642260935    -1.8346248238
H    0.5399132181    5.2449914197    -4.3040892356
H    1.5179234021    5.3361037874    -6.5961625611
H    1.5462899476    3.282005253    -8.0286316104
H    0.6019200178    1.1411324968    -7.1442634823
H    -0.3280521353    1.039202686    -4.8566457025
Cl    -1.9330791406    5.803749738    -3.3011375121
Cl    -0.3730487716    7.3398026284    -0.7642700988
Pd    -0.3586507583    5.1420532616    -1.6290709928

C O P Cl H 0
def2TZVP
****
Pd 0
SDD
****

Pd 0
SDD

--Link1--
%nprocs=28
%mem=128GB
%chk=RR_DIOP_2_SPE.chk
# PBE1PBE gen pseudo=read int=(grid=ultrafine) empiricaldispersion=GD3BJ pop=nbo guess=read geom=check

RR_DIOP_2 title 

0 1

C O P Cl H 0
def2TZVP
****
Pd 0
SDD
****

Pd 0
SDD

