%nprocs=28
%mem=128GB
%chk=R_SegPhos_1_SPE_NoPd.chk
# PBE1PBE/def2TZVP int=(grid=ultrafine) empiricaldispersion=GD3BJ nmr=giao 

R_SegPhos_1 title 

0 1
P    -1.6334239353    -0.7606295203    -0.0114528897
P    1.7313230934    -0.4584692769    0.0434736293
C    -1.395879986    0.6789660614    1.1142779824
C    1.2345765496    0.9753551399    -1.0022200738
C    -0.5139213864    1.7431780267    0.7391693475
C    -0.3340277586    2.7443501271    1.6874528168
C    -0.9312562925    2.7173806154    2.9544522952
C    -1.7760159701    1.6875246522    3.3355300321
C    -1.9993768858    0.6698907732    2.3848506951
C    1.8238199443    1.1447117833    -2.2682104919
C    1.4175685336    2.1571466463    -3.1621900867
C    0.4042081124    2.9967172596    -2.7289891536
C    -0.1821578908    2.8461822456    -1.4655718631
C    0.178350939    1.8422596835    -0.5733154181
C    -3.1154316964    -1.584409213    0.6943464603
C    -2.1473615274    -0.039968137    -1.6134274973
C    3.3332116301    -0.9636109772    -0.6993635679
C    2.1160031929    0.2530337468    1.6853005394
C    4.5505125613    -0.3930327606    -0.2892132287
C    5.7419587049    -0.7461707465    -0.938474632
C    5.7221559233    -1.6588544655    -2.0014117154
C    4.5080808183    -2.2316752753    -2.4099405409
C    3.3171716061    -1.8956128066    -1.7566267097
C    2.6935170884    1.530895237    1.8227370434
C    2.9792184882    2.03139814    3.099656047
C    2.6734174613    1.2706476651    4.2389046405
C    2.0955883901    -9.13941e-05    4.1007766896
C    1.8217481064    -0.515322591    2.8270982838
C    -2.9442591127    1.1199632909    -1.6830914614
C    -3.3214431718    1.6307579573    -2.9318798949
C    -2.8908646141    1.0004670937    -4.1097933751
C    -2.0948635118    -0.152405873    -4.0390465922
C    -1.726766144    -0.6796292851    -2.7943570511
C    -4.4171942148    -1.218872992    0.3103998054
C    -5.5230120876    -1.814753939    0.9332036643
C    -5.3349853847    -2.7666391027    1.9440339223
C    -4.0360123987    -3.1348936629    2.3261975969
C    -2.9276894769    -2.5556539551    1.6984011173
O    -1.1506329214    3.8071921971    -1.2827748937
C    -1.2246509951    4.5253321189    -2.5283244565
O    -0.1651730649    4.0599087559    -3.3865733047
O    -0.5574758289    3.8269899341    3.672801221
C    0.3969714685    4.5213788981    2.8466230385
O    0.4462949027    3.8715025336    1.5629500879
H    -2.2470951486    1.6642682307    4.3207179885
H    -2.6659860258    -0.1528893399    2.652311749
H    2.6254965568    0.4704624683    -2.5773666207
H    1.8805090593    2.2731647657    -4.144675658
H    4.574711646    0.3127028704    0.5461476118
H    6.6889566453    -0.3087952817    -0.6055766397
H    6.6547268334    -1.934277844    -2.5045715631
H    4.4889241335    -2.9610534434    -3.2258486205
H    2.3741605156    -2.3722201734    -2.0427475011
H    2.8922901628    2.1406354507    0.935246881
H    3.4423309005    3.0187848418    3.2047612349
H    2.8878252046    1.6691379823    5.2359504617
H    1.858608511    -0.5952095184    4.988393014
H    1.3881107515    -1.5135505995    2.698409396
H    -3.2439235676    1.6348088865    -0.7643590617
H    -3.9538477128    2.5239133809    -2.9847022806
H    -3.1782131273    1.408412615    -5.0844095963
H    -1.7602249748    -0.6460718868    -4.9569239441
H    -1.1213473349    -1.5900199345    -2.7187213966
H    -4.5714128101    -0.4836928501    -0.4847080799
H    -6.5346182347    -1.535997239    0.6203594176
H    -6.200734881    -3.2318121553    2.4265361462
H    -3.8826388265    -3.8931512047    3.1005278673
H    -1.9132283802    -2.871075547    1.9623402626
H    -2.1990319806    4.3192807332    -3.0107927759
H    -1.0906533482    5.6044187539    -2.3357791923
H    0.0708090832    5.5679642594    2.7133742184
H    1.3950112057    4.4669267142    3.321587646

--Link1--
%nprocs=28
%mem=128GB
%chk=R_SegPhos_1_SPE_NoPd.chk
# PBE1PBE/def2TZVP int=(grid=ultrafine) empiricaldispersion=GD3BJ pop=nbo guess=read geom=check

R_SegPhos_1 title 

0 1

