%nprocs=16
%mem=18GB
%chk=S-35tBu-C3-Tunephos_5.chk
# PBEPBE gen 6D pseudo=read scf=maxcycles=500 denfit int=(grid=ultrafine) empiricaldispersion=GD3BJ opt freq=noraman

title 

0 1
Pd    -3.92450    -1.47810    0.98590
P    -5.03680    -0.13570    2.63950
P    -2.22500    0.19930    0.68240
O    -1.51530    3.67080    3.76600
O    -4.31290    4.43720    3.14240
C    -6.14010    -1.12000    3.80660
C    -7.44590    -0.70630    4.13610
C    -8.26390    -1.45130    5.01280
C    -7.74640    -2.65030    5.55960
C    -6.44380    -3.10380    5.23890
C    -5.66020    -2.32260    4.36130
C    -6.17080    1.15000    1.90240
C    -6.66140    2.22350    2.66950
C    -7.52820    3.18760    2.10590
C    -7.86880    3.06530    0.73830
C    -7.37500    2.00520    -0.05990
C    -6.53480    1.04800    0.54840
C    -3.83650    0.79240    3.75840
C    -3.61920    0.30790    5.06910
C    -2.70540    0.92520    5.93770
C    -1.99040    2.05120    5.50890
C    -2.20050    2.56450    4.21340
C    -3.11290    1.93870    3.32390
C    -3.30050    2.57180    1.99710
C    -3.86160    3.87660    1.97170
C    -4.00860    4.57730    0.76010
C    -3.58060    3.99370    -0.43900
C    -3.02850    2.70300    -0.42560
C    -2.88970    1.96620    0.77480
C    -1.38700    0.06120    -0.99850
C    -2.19810    -0.06580    -2.14380
C    -1.64850    -0.20360    -3.43590
C    -0.24010    -0.21890    -3.56160
C    0.60680    -0.10460    -2.43530
C    0.01400    0.03540    -1.15720
C    -0.84870    0.06600    1.93920
C    -0.79390    -1.08170    2.74870
C    0.21210    -1.24990    3.72350
C    1.19350    -0.23770    3.85520
C    1.17230    0.92610    3.04680
C    0.12660    1.06890    2.10480
C    -3.70280    5.65930    3.53690
H    -7.84150    0.19710    3.70460
H    -8.35840    -3.23160    6.22630
H    -4.66450    -2.64670    4.10110
H    -6.34990    2.27920    3.70100
H    -8.52040    3.80940    0.31180
H    -6.15510    0.22100    -0.03060
H    -4.14900    -0.55520    5.43600
H    -2.54820    0.52900    6.93000
H    -1.27360    2.50570    6.17440
H    -4.45970    5.55780    0.75120
H    -3.68730    4.52890    -1.37090
H    -2.71690    2.29110    -1.37030
H    -3.26960    -0.05580    -2.01740
H    0.21790    -0.32940    -4.53030
H    0.62820    0.10780    -0.27650
H    -1.54410    -1.84520    2.61680
H    1.97450    -0.35800    4.58440
H    0.06860    1.95100    1.48430
H    -3.06520    6.10050    2.76890
Cl    -5.58870    -3.10200    1.16260
Cl    -2.84620    -2.87760    -0.53600
C    -2.90560    5.41330    4.82890
C    -1.50080    4.82170    4.60130
H    -1.00630    4.61890    5.55090
H    -3.48420    4.77040    5.49310
H    -2.79010    6.35990    5.35670
C    -10.44530    -1.83880    6.32280
C    -9.68070    -0.93650    5.32990
C    -10.50410    -0.86740    4.02830
C    -9.59240    0.47240    5.95130
H    -9.92660    -1.91440    7.27920
H    -11.44030    -1.44420    6.53100
H    -10.58130    -2.84670    5.92870
H    -10.06970    -0.18000    3.30210
H    -10.56510    -1.84640    3.55140
H    -11.52330    -0.52940    4.21720
H    -9.14510    1.19640    5.27040
H    -10.57870    0.85420    6.21630
H    -8.98840    0.46300    6.85930
C    -6.84780    -5.17540    6.71240
C    -5.85790    -4.40920    5.80800
C    -4.60950    -4.08320    6.65060
C    -5.46450    -5.34780    4.64920
H    -7.75230    -5.45550    6.17100
H    -6.40610    -6.09780    7.09110
H    -7.14080    -4.58540    7.58160
H    -3.83070    -3.60440    6.05920
H    -4.85600    -3.40790    7.47080
H    -4.17430    -4.98360    7.08520
H    -4.69630    -4.91710    4.00740
H    -5.07490    -6.29710    5.01790
H    -6.32520    -5.57000    4.01700
C    -7.65450    5.69270    2.31310
C    -8.10200    4.35360    2.93100
C    -7.63950    4.33640    4.40480
C    -9.64160    4.27390    2.92830
H    -8.01680    5.81780    1.29320
H    -8.02120    6.54150    2.89050
H    -6.56710    5.76160    2.28150
H    -7.94710    3.42200    4.91320
H    -6.55570    4.41920    4.48910
H    -8.06480    5.17000    4.96410
H    -9.98410    3.32450    3.34210
H    -10.08370    5.07140    3.52610
H    -10.05730    4.35950    1.92460
C    -8.46180    0.53240    -1.78450
C    -7.71810    1.86250    -1.55320
C    -6.41750    1.87290    -2.38140
C    -8.61650    3.00330    -2.07780
H    -9.37730    0.48820    -1.19320
H    -8.74080    0.40720    -2.83110
H    -7.85700    -0.33160    -1.50930
H    -5.85530    2.79260    -2.21510
H    -5.76060    1.04150    -2.12770
H    -6.62330    1.80180    -3.44980
H    -9.57500    3.03250    -1.55830
H    -8.83530    2.87940    -3.13890
H    -8.13800    3.97670    -1.96290
C    -3.41290    0.96330    -4.78720
C    -2.58960    -0.33140    -4.64720
C    -3.54240    -1.52710    -4.44300
C    -1.83640    -0.55800    -5.97590
H    -2.76250    1.82730    -4.92920
H    -4.08970    0.91690    -5.64080
H    -4.02020    1.15800    -3.90450
H    -2.98280    -2.45290    -4.30200
H    -4.18630    -1.40360    -3.57270
H    -4.19710    -1.66780    -5.30350
H    -1.23730    -1.46920    -5.94700
H    -2.52910    -0.65880    -6.81210
H    -1.17480    0.27590    -6.21320
C    2.91970    0.01350    -1.31770
C    2.13330    -0.15240    -2.63500
C    2.56940    0.98510    -3.58050
C    2.52850    -1.51020    -3.24810
H    2.68700    -0.77690    -0.60270
H    3.99590    -0.02060    -1.48890
H    2.70220    0.97190    -0.84770
H    2.12460    0.89410    -4.57100
H    2.27900    1.95780    -3.18150
H    3.65100    0.99650    -3.71790
H    2.07240    -1.66950    -4.22500
H    3.60770    -1.58960    -3.38180
H    2.21550    -2.33440    -2.60580
C    1.35550    -2.55490    5.62450
C    0.20550    -2.51950    4.59470
C    0.34440    -3.76260    3.69360
C    -1.12170    -2.59910    5.37510
H    1.30400    -1.71160    6.31420
H    1.31880    -3.46210    6.22840
H    2.33190    -2.53760    5.13870
H    -0.48080    -3.85630    2.98780
H    1.26560    -3.72230    3.11100
H    0.36770    -4.68120    4.28060
H    -1.98600    -2.65360    4.71400
H    -1.15500    -3.47870    6.01850
H    -1.25430    -1.72260    6.01010
C    1.60220    3.36390    3.52930
C    2.25250    2.02070    3.15520
C    2.97060    2.16800    1.80070
C    3.32710    1.71250    4.22100
H    1.06420    3.28420    4.47420
H    2.34500    4.15420    3.63830
H    0.89140    3.69670    2.77310
H    3.43050    1.22640    1.49900
H    2.28680    2.46990    1.00750
H    3.75930    2.91940    1.84490
H    3.85950    0.78650    4.00040
H    4.07580    2.50390    4.26900
H    2.89250    1.62690    5.21760
H    -0.88080    5.56520    4.10000
H    -4.50340    6.37310    3.73140

C O Cl H P 0
6-31G(d)
****
Pd 0
LANL2DZ
****

Pd 0
LANL2DZ

