%nprocs=16
%mem=18GB
%chk=S-35tBu-C3-Tunephos_2.chk
# PBEPBE gen 6D pseudo=read scf=maxcycles=500 denfit int=(grid=ultrafine) empiricaldispersion=GD3BJ opt freq=noraman

title 

0 1
Pd    -4.02330    -1.50960    0.92960
P    -5.07130    -0.15460    2.61720
P    -2.29440    0.13310    0.62070
O    -1.42290    3.55540    3.69160
O    -4.21420    4.42160    3.12860
C    -6.16570    -1.12800    3.80000
C    -5.68990    -2.34200    4.33510
C    -6.46810    -3.11220    5.23000
C    -7.75540    -2.64000    5.57550
C    -8.26770    -1.43090    5.04830
C    -7.45660    -0.69320    4.15950
C    -6.19020    1.15910    1.90800
C    -6.64600    2.23720    2.68960
C    -7.49340    3.22820    2.14310
C    -7.85230    3.12580    0.77830
C    -7.39350    2.06070    -0.03410
C    -6.57090    1.07810    0.55720
C    -3.83610    0.74990    3.72200
C    -3.61040    0.25830    5.02880
C    -2.67030    0.85250    5.88520
C    -1.93200    1.95950    5.44660
C    -2.14650    2.47940    4.15440
C    -3.09430    1.88280    3.28090
C    -3.29200    2.52430    1.95940
C    -3.81600    3.84440    1.94690
C    -3.98050    4.54570    0.73780
C    -3.60960    3.94620    -0.47270
C    -3.09200    2.64110    -0.47210
C    -2.93020    1.90800    0.72700
C    -1.42580    0.01900    -1.04620
C    -2.19840    -0.13550    -2.21480
C    -1.59930    -0.22330    -3.49270
C    -0.18940    -0.16030    -3.57730
C    0.61680    -0.01700    -2.42340
C    -0.02290    0.06630    -1.16800
C    -0.92630    -0.00300    1.88220
C    0.01280    1.03050    2.06060
C    1.04720    0.91870    3.01720
C    1.09690    -0.24870    3.81340
C    0.15400    -1.29260    3.67080
C    -0.84790    -1.15640    2.68340
C    -3.54700    5.62030    3.50240
H    -4.70530    -2.66290    4.03600
H    -8.34880    -3.23320    6.25090
H    -7.84520    0.21980    3.74180
H    -6.32080    2.27700    3.71750
H    -8.48890    3.88990    0.36490
H    -6.21500    0.24910    -0.03390
H    -4.15430    -0.59300    5.40250
H    -2.50820    0.45080    6.87440
H    -1.19120    2.39120    6.10080
H    -4.40370    5.53860    0.73970
H    -3.73350    4.48070    -1.40290
H    -2.82440    2.21350    -1.42370
H    -3.26880    -0.18400    -2.09780
H    0.26390    -0.23330    -4.55180
H    0.58450    0.15880    -0.28400
H    -0.09020    1.90720    1.44010
H    1.87460    -0.34350    4.55430
H    -1.58360    -1.92720    2.52440
H    -2.91170    6.03290    2.71660
Cl    -5.72260    -3.09440    1.11970
Cl    -3.00400    -2.90950    -0.63130
C    -2.72820    5.35030    4.77630
C    -1.35030    4.70810    4.52080
H    -0.84450    4.49100    5.46110
H    -3.31410    4.73160    5.45690
H    -2.56700    6.29420    5.29680
C    -6.88600    -5.58690    5.36680
C    -5.96280    -4.44050    5.82270
C    -5.96710    -4.35740    7.36250
C    -4.52460    -4.79000    5.38110
H    -6.91370    -5.65690    4.27850
H    -6.54730    -6.55010    5.74940
H    -7.91180    -5.44910    5.70830
H    -5.34140    -3.53540    7.71210
H    -6.96690    -4.19890    7.76570
H    -5.58570    -5.27460    7.81220
H    -3.81260    -4.02570    5.69380
H    -4.19330    -5.73160    5.82020
H    -4.45070    -4.90400    4.29870
C    -10.42170    -1.80090    6.40350
C    -9.66960    -0.90000    5.40000
C    -10.52050    -0.81100    4.11760
C    -9.54870    0.50300    6.02900
H    -10.57840    -2.80400    6.00490
H    -11.40670    -1.39620    6.63790
H    -9.88140    -1.89040    7.34670
H    -10.09260    -0.12470    3.38650
H    -10.60540    -1.78580    3.63570
H    -11.53060    -0.46060    4.33130
H    -9.10630    1.22580    5.34350
H    -10.52380    0.89610    6.31810
H    -8.92540    0.47900    6.92360
C    -9.56590    4.36310    3.00230
C    -8.02500    4.40340    2.98320
C    -7.55210    5.73470    2.36710
C    -7.54080    4.36530    4.44960
H    -9.92670    3.42050    3.41610
H    -9.97880    5.16820    3.61060
H    -9.99330    4.46470    2.00510
H    -6.46380    5.77650    2.32160
H    -7.92470    5.87560    1.35300
H    -7.88950    6.58880    2.95460
H    -6.45380    4.41900    4.51690
H    -7.93510    5.20660    5.01990
H    -7.86470    3.45640    4.95770
C    -8.64380    3.09760    -2.02670
C    -7.75230    1.94080    -1.52590
C    -8.51250    0.62200    -1.76860
C    -6.45890    1.94900    -2.36580
H    -8.15270    4.06420    -1.90790
H    -8.87740    2.98780    -3.08620
H    -9.59500    3.13220    -1.49420
H    -7.91430    -0.25270    -1.51370
H    -9.42190    0.57870    -1.16800
H    -8.80430    0.51560    -2.81380
H    -5.80350    1.11340    -2.12220
H    -5.89080    2.86490    -2.19880
H    -6.67430    1.88590    -3.43280
C    -3.95150    -0.41610    -4.51500
C    -2.42970    -0.39320    -4.77820
C    -2.05200    -1.72290    -5.45950
C    -2.14220    0.77770    -5.73930
H    -4.29290    0.51110    -4.05410
H    -4.51210    -0.53470    -5.44280
H    -4.23640    -1.24550    -3.86610
H    -1.00170    -1.75350    -5.74880
H    -2.22900    -2.56770    -4.79250
H    -2.63810    -1.89000    -6.36370
H    -1.09690    0.81430    -6.04500
H    -2.73700    0.70120    -6.65000
H    -2.37810    1.73460    -5.27220
C    2.64700    1.36530    -1.86590
C    2.15420    0.04240    -2.48690
C    2.70170    -0.03180    -3.92880
C    2.74590    -1.14180    -1.69700
H    2.37660    1.45300    -0.81370
H    3.73230    1.45290    -1.92270
H    2.22000    2.22460    -2.38440
H    2.42290    -0.96610    -4.41760
H    2.33670    0.79410    -4.54040
H    3.79080    0.01930    -3.94190
H    2.39650    -2.09380    -2.09850
H    3.83530    -1.14670    -1.73980
H    2.46800    -1.11350    -0.64310
C    3.50260    1.44150    2.92220
C    2.10410    2.01950    3.21430
C    2.05190    2.53240    4.66670
C    1.89430    3.23120    2.27980
H    3.56040    1.05430    1.90400
H    4.27870    2.19970    3.02990
H    3.75810    0.62350    3.59550
H    1.06200    2.92100    4.90470
H    2.27550    1.74860    5.38980
H    2.76980    3.33600    4.83260
H    0.92710    3.70620    2.44740
H    2.65540    3.99470    2.44230
H    1.95040    2.94490    1.22910
C    1.59560    -3.23040    4.37520
C    0.24110    -2.52650    4.58640
C    -0.87580    -3.55830    4.31390
C    0.11410    -2.08340    6.05740
H    2.43770    -2.58530    4.62540
H    1.68220    -4.12420    4.99360
H    1.71920    -3.53690    3.33570
H    -1.86560    -3.12690    4.46610
H    -0.82680    -3.94660    3.29570
H    -0.79620    -4.41550    4.98330
H    -0.82960    -1.56420    6.22810
H    0.14750    -2.93620    6.73600
H    0.91500    -1.40690    6.35470
H    -0.71450    5.42690    4.00360
H    -4.31440    6.36570    3.71180

C O Cl H P 0
6-31G(d)
****
Pd 0
LANL2DZ
****

Pd 0
LANL2DZ

