%nprocs=16
%mem=18GB
%chk=S-35tBu-C3-Tunephos_4.chk
# PBEPBE gen 6D pseudo=read scf=maxcycles=500 denfit int=(grid=ultrafine) empiricaldispersion=GD3BJ opt freq=noraman

title 

0 1
Pd    -4.12140    -1.40340    0.91630
P    -5.10440    -0.02230    2.62420
P    -2.32510    0.16120    0.60960
O    -1.31450    3.56700    3.62970
O    -4.06480    4.53800    3.08800
C    -6.16170    -1.03060    3.80840
C    -5.61410    -2.21170    4.34680
C    -6.34170    -3.03550    5.23050
C    -7.66300    -2.65360    5.55960
C    -8.25240    -1.48380    5.02620
C    -7.48380    -0.68040    4.14940
C    -6.22790    1.29320    1.92270
C    -6.74590    2.34310    2.70530
C    -7.61050    3.31410    2.14840
C    -7.91360    3.23040    0.76630
C    -7.38720    2.19710    -0.04670
C    -6.55530    1.23110    0.55730
C    -3.84320    0.86510    3.71910
C    -3.64320    0.40240    5.04150
C    -2.68040    0.97650    5.88590
C    -1.89210    2.03660    5.42150
C    -2.08370    2.53410    4.11710
C    -3.05810    1.95990    3.25720
C    -3.24010    2.59210    1.92960
C    -3.71530    3.92990    1.90720
C    -3.86580    4.62480    0.69270
C    -3.52110    4.00240    -0.51390
C    -3.04430    2.68190    -0.50300
C    -2.90110    1.95490    0.70230
C    -1.45020    0.00910    -1.05100
C    -2.21980    -0.12550    -2.22400
C    -1.61620    -0.23940    -3.49750
C    -0.20450    -0.22320    -3.57330
C    0.59870    -0.10070    -2.41470
C    -0.04580    0.01070    -1.16380
C    -0.98040    -0.04560    1.88530
C    -0.97660    -1.20720    2.67820
C    -0.00290    -1.40310    3.68290
C    0.98760    -0.40860    3.85400
C    1.01800    0.76230    3.06130
C    0.00950    0.93480    2.08560
C    -3.34410    5.71620    3.42870
H    -4.60470    -2.47920    4.07540
H    -8.25410    -3.26020    6.22520
H    -7.90310    0.20980    3.71300
H    -6.47640    2.38790    3.75010
H    -8.55930    3.96730    0.32340
H    -6.15220    0.42610    -0.03640
H    -4.22440    -0.41020    5.44220
H    -2.53950    0.59420    6.88600
H    -1.13490    2.45130    6.06760
H    -4.25260    5.63250    0.68870
H    -3.63110    4.53240    -1.44830
H    -2.79410    2.23780    -1.45170
H    -3.29190    -0.13830    -2.11380
H    0.25220    -0.31570    -4.54450
H    0.55800    0.08950    -0.27610
H    -1.74880    -1.93690    2.49980
H    1.73990    -0.54440    4.61450
H    -0.03570    1.81940    1.46940
H    -2.70100    6.08530    2.62780
Cl    -5.88760    -2.91490    1.10040
Cl    -3.17370    -2.83820    -0.65830
C    -2.52120    5.43830    4.69800
C    -1.17760    4.72900    4.43770
H    -0.66940    4.50580    5.37530
H    -3.12460    4.86120    5.39940
H    -2.31070    6.38500    5.19520
C    -4.47060    -3.89170    6.66880
C    -5.67630    -4.30120    5.80040
C    -5.19480    -5.20350    4.64550
C    -6.62950    -5.13930    6.67970
H    -4.78310    -3.25130    7.49440
H    -3.97310    -4.76200    7.09790
H    -3.72230    -3.34130    6.09960
H    -4.75370    -6.12830    5.01850
H    -4.43970    -4.72120    4.02560
H    -6.02400    -5.47650    3.99130
H    -7.50580    -5.46870    6.11970
H    -6.13620    -6.03600    7.05610
H    -6.97370    -4.57970    7.55020
C    -10.64360    -2.26090    4.93630
C    -9.70360    -1.13270    5.40460
C    -10.19350    0.18220    4.76210
C    -9.81640    -0.97120    6.93400
H    -10.41130    -3.21440    5.41010
H    -11.68510    -2.03460    5.16610
H    -10.56980    -2.40810    3.85800
H    -9.58310    1.02750    5.07820
H    -10.17090    0.13510    3.67250
H    -11.22130    0.40690    5.04840
H    -9.14210    -0.19390    7.29560
H    -10.82770    -0.69280    7.23180
H    -9.56980    -1.88920    7.46670
C    -9.14020    5.38140    2.30340
C    -8.19730    4.41520    3.05370
C    -7.05910    5.25540    3.65940
C    -9.00760    3.76640    4.19190
H    -9.99330    4.85700    1.87110
H    -9.54220    6.14240    2.97310
H    -8.62160    5.90810    1.50140
H    -6.39300    4.65410    4.27810
H    -6.45440    5.71200    2.87550
H    -7.44280    6.05800    4.28940
H    -8.38710    3.13230    4.82500
H    -9.46030    4.51750    4.83970
H    -9.81250    3.14750    3.79400
C    -6.36840    2.15640    -2.34700
C    -7.68860    2.08800    -1.55300
C    -8.60470    3.21770    -2.07120
C    -8.39010    0.74600    -1.84220
H    -5.68820    1.34510    -2.08940
H    -6.54420    2.09720    -3.42140
H    -5.84440    3.09240    -2.15150
H    -9.57540    3.20890    -1.57400
H    -8.15540    4.20030    -1.92220
H    -8.79530    3.11450    -3.13990
H    -9.31750    0.65920    -1.27460
H    -8.64180    0.64620    -2.89850
H    -7.76920    -0.11060    -1.58060
C    -3.96760    -0.36410    -4.53250
C    -2.44420    -0.38780    -4.78710
C    -2.10340    -1.73040    -5.46280
C    -2.11560    0.77090    -5.74960
H    -4.28420    0.57420    -4.07630
H    -4.52620    -0.46900    -5.46310
H    -4.28060    -1.18260    -3.88270
H    -1.05300    -1.79380    -5.74660
H    -2.30940    -2.56750    -4.79430
H    -2.68960    -1.88240    -6.36950
H    -1.06770    0.77500    -6.04860
H    -2.70680    0.70980    -6.66380
H    -2.32530    1.73590    -5.28660
C    2.66930    1.21950    -1.85690
C    2.13750    -0.09230    -2.46890
C    2.69120    -0.19800    -3.90640
C    2.68550    -1.28790    -1.66450
H    2.39450    1.32570    -0.80770
H    3.75730    1.27090    -1.90670
H    2.27430    2.08730    -2.38640
H    2.38380    -1.12650    -4.38900
H    2.35860    0.63440    -4.52770
H    3.78160    -0.18390    -3.91290
H    2.30750    -2.23160    -2.05950
H    3.77440    -1.32880    -1.70070
H    2.40270    -1.24070    -0.61260
C    -1.11240    -3.65760    4.22940
C    -0.00310    -2.64520    4.59210
C    -0.23040    -2.20400    6.05060
C    1.34960    -3.37610    4.47820
H    -1.00140    -4.02710    3.20910
H    -1.08700    -4.52710    4.88720
H    -2.10590    -3.21940    4.32460
H    0.55380    -1.53330    6.40170
H    -1.17920    -1.67650    6.15540
H    -0.25220    -3.05780    6.72840
H    2.18440    -2.75640    4.80450
H    1.36760    -4.27950    5.08860
H    1.54820    -3.67280    3.44760
C    3.50140    1.14380    3.02920
C    2.13080    1.80170    3.28280
C    2.07090    2.32330    4.73160
C    2.01590    3.01890    2.33900
H    3.56290    0.74830    2.01440
H    4.31630    1.85740    3.15360
H    3.69340    0.31650    3.71210
H    1.10110    2.77370    4.94080
H    2.22550    1.53020    5.46260
H    2.83230    3.08180    4.91480
H    1.07540    3.55190    2.48130
H    2.81710    3.73650    2.51670
H    2.07960    2.72390    1.29110
H    -0.51670    5.40870    3.89950
H    -4.07610    6.49810    3.63100

C O Cl H P 0
6-31G(d)
****
Pd 0
LANL2DZ
****

Pd 0
LANL2DZ

