%NProcShared=52
%mem=18GB
%chk=R-C4-Tunephos_3_SPE.chk
# PBE1PBE gen pseudo=read int=(grid=ultrafine) empiricaldispersion=GD3BJ nmr=giao 

 title 

0 1
Pd    -2.312160228    0.0134983966    -0.0007308641
P    -0.7365611582    1.6671397721    -0.0331672853
C    -0.0354897933    2.1343500883    -1.6559960212
C    -0.8381805199    1.9445095954    -2.7971585214
C    -0.3496679016    2.3159619529    -4.0564313582
C    0.9315150909    2.8735210901    -4.18127655
C    1.7287000054    3.0657075443    -3.0431284405
C    1.2489056263    2.698901252    -1.7796718671
H    1.8857329557    2.8145948678    -0.8969420699
H    1.3108978384    3.1571628865    -5.1686188175
H    -1.8424165061    1.5211572779    -2.6798541747
C    -1.3566295386    3.2314693879    0.7056342954
C    -0.8001832343    4.4729986355    0.350497401
C    -1.2349046862    5.6423956253    0.9897003747
C    -2.2167947628    5.5769439913    1.9874516056
C    -2.7741786254    4.3389648199    2.341397225
C    -2.3545934007    3.1687449292    1.6983294857
H    -2.8135372884    2.2058978102    1.9431630071
H    -2.5566100718    6.4925297213    2.4825168981
H    -0.039256758    4.5306416155    -0.4335364582
C    0.6979286418    1.2486375133    1.0621211573
C    0.7332095655    1.8195541404    2.3503957222
C    1.7512762926    1.4794459394    3.2451067416
C    2.7684731729    0.6016953431    2.8613861665
C    2.7576316574    0.0515868654    1.5695834404
C    1.6999356547    0.3280503933    0.6658719696
C    1.6965382113    -0.3482668417    -0.6637048816
C    2.7581969319    -0.084251142    -1.5664917525
C    2.7637035432    -0.6344512911    -2.8582889143
C    1.7366024695    -1.5001958439    -3.2429007644
C    0.7138296002    -1.8283168412    -2.3490811025
C    0.6841305124    -1.2570184731    -1.0608341064
P    -0.7561744955    -1.6585836059    0.033159865
C    -0.0621455142    -2.133996901    1.6566342355
C    1.2154347004    -2.7135458734    1.7815044049
C    1.6897092641    -3.0859693385    3.0454025455
C    0.8937512251    -2.8844948581    4.182801724
C    -0.3807023225    -2.3119802204    4.0567625613
C    -0.8636422436    -1.9348031868    2.7970427408
H    -1.862745038    -1.4997273622    2.6788013058
H    1.2688542389    -3.172578084    5.1704932386
H    1.8516945232    -2.8366784448    0.899371953
C    -1.3939394824    -3.2155276661    -0.7061817676
C    -2.3901919792    -3.1411120987    -1.6997866544
C    -2.8229161035    -4.3063427964    -2.3432075294
C    -2.2804397913    -5.5507747133    -1.9887278635
C    -1.3002903557    -5.6277271532    -0.9900861828
C    -0.8524389942    -4.4634980634    -0.3505151452
H    -0.0929478526    -4.5300501025    0.4342048639
H    -2.6305403146    -6.462320467    -2.4840816471
H    -2.8375618897    -2.1729458938    -1.9450636356
H    -0.0664942296    -2.5286310685    -2.6534230973
H    1.7341335594    -1.9247523392    -4.2517944628
H    3.5486789037    -0.3621779966    -3.5686742598
O    3.7311217935    0.7699606428    -1.119432934
C    5.070527581    0.5900217275    -1.6084209251
H    5.2996015482    1.412138723    -2.313412909
H    5.1499644428    -0.3660315596    -2.1575199512
C    6.0609447486    0.5943362731    -0.4441578758
H    5.8959489317    1.5007492959    0.1683613345
H    7.0661161484    0.7034479608    -0.893125289
C    6.0531676883    -0.665703078    0.450120451
H    5.8780975053    -1.5701236968    -0.1625475105
H    7.0565975232    -0.7865867433    0.8999677291
C    5.0618537413    -0.6497759591    1.6135199887
H    5.2806594877    -1.4745248321    2.3186991598
O    3.7208515996    -0.8139944243    1.1233727741
H    5.1520217271    0.305278096    2.1627001676
H    3.5495782107    0.3202294747    3.5724545823
H    1.7529150666    1.9040092241    4.2539992608
H    -0.0390965359    2.5289926629    2.6540574255
Cl    -3.9474035053    1.6059956359    -0.6937698312
Cl    -3.966700555    -1.5596062221    0.6908035973
H    -0.806937424    6.6078766622    0.7003653951
H    -3.5546932926    4.2837787615    3.1068229159
H    -0.9734213379    2.1668179283    -4.9436515762
H    2.7327012898    3.4930563443    -3.1376851501
H    -3.6020312478    -4.2420143397    -3.1093449558
H    -0.8839568446    -6.5981604895    -0.7003448807
H    2.6885516518    -3.5250388854    3.1408933135
H    -1.0035090474    -2.1555719709    4.94339696

O Cl C P H 0
def2TZVP
****
Pd 0
SDD
****

Pd 0
SDD

--Link1--
%NProcShared=52
%mem=18GB
%chk=R-C4-Tunephos_3_SPE.chk
# PBE1PBE gen pseudo=read int=(grid=ultrafine) empiricaldispersion=GD3BJ pop=nbo guess=read geom=check

 title 

0 1

O Cl C P H 0
def2TZVP
****
Pd 0
SDD
****

Pd 0
SDD

